&CONTROL 
   calculation = 'vc-relax'
   restart_mode = 'from_scratch' 
   prefix = 'Al3C' 
   tstress = .true. 
   tprnfor = .true. 
   pseudo_dir = '../pseudo' 
   outdir = './output' 
   forc_conv_thr = 0.001
   etot_conv_thr = 0.0001
&end 
&SYSTEM 
   ibrav = 5 
   nat = 4 
   ntyp = 2 
   celldm(1) = 11.955942126222388 
   celldm(4) = 0.9015132336487361 
   ecutwfc = 80 
   occupations = 'smearing' 
   smearing = 'marzari-vanderbilt' 
   degauss = 0.02 
&end 
&ELECTRONS 
   conv_thr =  1e-08 
   mixing_beta = 0.7 
   electron_maxstep =100
&end 
&IONS 
   ion_dynamics = 'bfgs' 
   upscale = 100.0
   trust_radius_max = 0.8
&end 
&CELL 
   cell_dynamics = 'bfgs' 
   cell_dofree = 'ibrav' 
   cell_factor = 4.0 
   press_conv_thr = 1.0 
   press = 500.0 
&end 

ATOMIC_SPECIES 
   Al   26.9815386    Al_ONCV_PBE_sr.upf 
   C   12.0107    C_ONCV_PBE_sr.upf 

ATOMIC_POSITIONS crystal 
   Al    0.27685332999999995    0.27685333000000006    0.27685333000000006    
   Al    0.7231466699999999    0.7231466700000001    0.7231466700000001    
   Al    0.49999999999999994    0.5000000000000001    0.5000000000000001    
   C    0.0    0.0    0.0    
K_POINTS automatic 
4  4  4    0  0  0  
