&CONTROL 
   calculation = 'vc-relax'
   restart_mode = 'from_scratch' 
   prefix = 'Al3C' 
   tstress = .true. 
   tprnfor = .true. 
   pseudo_dir = '../pseudo' 
   outdir = './output' 
   forc_conv_thr = 0.001
   etot_conv_thr = 0.0001
&end 
&SYSTEM 
   ibrav = 5 
   nat = 8 
   ntyp = 2 
   celldm(1) = 9.598080589861151 
   celldm(4) = 0.5743681567154838 
   ecutwfc = 80 
   occupations = 'smearing' 
   smearing = 'marzari-vanderbilt' 
   degauss = 0.02 
&end 
&ELECTRONS 
   conv_thr =  1e-08 
   mixing_beta = 0.7 
   electron_maxstep =100
&end 
&IONS 
   ion_dynamics = 'bfgs' 
   upscale = 100.0
   trust_radius_max = 0.8
&end 
&CELL 
   cell_dynamics = 'bfgs' 
   cell_dofree = 'ibrav' 
   cell_factor = 4.0 
   press_conv_thr = 1.0 
   press = 500.0 
&end 

ATOMIC_SPECIES 
   Al   26.9815386    Al_ONCV_PBE_sr.upf 
   C   12.0107    C_ONCV_PBE_sr.upf 

ATOMIC_POSITIONS crystal 
   Al    0.9052220000000002    -0.40773200000000004    0.2572889999999999    
   Al    0.09477800000000003    0.4077319999999999    1.7427109999999995    
   Al    0.2572890000000001    -0.09477800000000003    0.5922679999999998    
   Al    0.7427110000000001    0.09477799999999992    1.4077319999999998    
   Al    0.5922680000000002    -0.7427110000000001    0.9052219999999997    
   Al    0.40773200000000004    0.742711    1.0947779999999998    
   C    0.172786    0.172786    0.172786    
   C    0.827214    0.827214    0.827214    
K_POINTS automatic 
5  5  5    0  0  0  
