&CONTROL 
   calculation = 'vc-relax'
   restart_mode = 'from_scratch' 
   prefix = 'Al3C' 
   tstress = .true. 
   tprnfor = .true. 
   pseudo_dir = '../pseudo' 
   outdir = './output' 
   forc_conv_thr = 0.001
   etot_conv_thr = 0.0001
&end 
&SYSTEM 
   ibrav = 4 
   nat = 8 
   ntyp = 2 
   celldm(1) = 8.770885696999214 
   celldm(3) = 0.9487984366351154 
   ecutwfc = 80 
   occupations = 'smearing' 
   smearing = 'marzari-vanderbilt' 
   degauss = 0.02 
&end 
&ELECTRONS 
   conv_thr =  1e-08 
   mixing_beta = 0.7 
   electron_maxstep =100
&end 
&IONS 
   ion_dynamics = 'bfgs' 
   upscale = 100.0
   trust_radius_max = 0.8
&end 
&CELL 
   cell_dynamics = 'bfgs' 
   cell_dofree = 'ibrav' 
   cell_factor = 4.0 
   press_conv_thr = 1.0 
   press = 500.0 
&end 

ATOMIC_SPECIES 
   Al   26.9815386    Al_ONCV_PBE_sr.upf 
   C   12.0107    C_ONCV_PBE_sr.upf 

ATOMIC_POSITIONS crystal 
   Al    1.2429108127450425e-17    0.3252795    0.236497    
   Al    2.5781440423719955e-17    0.6747205000000001    0.763503    
   Al    0.6747205000000001    0.6747205000000001    0.236497    
   Al    0.3252795    0.3252795    0.763503    
   Al    0.3252795    0.0    0.236497    
   Al    0.6747205000000001    0.0    0.763503    
   C    0.33333333    0.66666667    0.5    
   C    0.66666667    0.33333333    0.5    
K_POINTS automatic 
5  5  6    0  0  0  
