&CONTROL 
   calculation = 'vc-relax'
   restart_mode = 'from_scratch' 
   prefix = 'Be3Si' 
   tstress = .true. 
   tprnfor = .true. 
   pseudo_dir = '../pseudo' 
   outdir = './output' 
   forc_conv_thr = 0.001
   etot_conv_thr = 0.0001
&end 
&SYSTEM 
   ibrav = 5 
   nat = 8 
   ntyp = 2 
   celldm(1) = 7.412055518139974 
   celldm(4) = -0.020487126871384643 
   ecutwfc = 80 
   occupations = 'smearing' 
   smearing = 'marzari-vanderbilt' 
   degauss = 0.02 
&end 
&ELECTRONS 
   conv_thr =  1e-08 
   mixing_beta = 0.7 
   electron_maxstep =100
&end 
&IONS 
   ion_dynamics = 'bfgs' 
   upscale = 100.0
   trust_radius_max = 0.8
&end 
&CELL 
   cell_dynamics = 'bfgs' 
   cell_dofree = 'ibrav' 
   cell_factor = 4.0 
   press_conv_thr = 1.0 
   press = 500.0 
&end 

ATOMIC_SPECIES 
   Be   9.012182    Be_ONCV_PBE_sr.upf 
   Si   28.0855    Si_ONCV_PBE_sr.upf 

ATOMIC_POSITIONS crystal 
   Be    1.0066040000000003    0.49339600000000017    0.7500000000000002    
   Be    0.9933960000000002    -0.493396    0.25    
   Be    -0.2499999999999999    0.0066039999999999155    0.49339599999999995    
   Be    0.25000000000000056    -0.006604000000000165    1.506604    
   Be    -0.5066039999999997    -0.25000000000000033    1.0066039999999998    
   Be    0.5066040000000004    0.25000000000000006    0.9933960000000002    
   Si    0.0    0.0    0.0    
   Si    0.5000000000000004    0.5    1.5    
K_POINTS automatic 
6  6  6    0  0  0  
