&CONTROL 
   calculation = 'vc-relax'
   restart_mode = 'from_scratch' 
   prefix = 'B3F' 
   tstress = .true. 
   tprnfor = .true. 
   pseudo_dir = '../pseudo' 
   outdir = './output' 
   forc_conv_thr = 0.001
   etot_conv_thr = 0.0001
&end 
&SYSTEM 
   ibrav = 4 
   nat = 8 
   ntyp = 2 
   celldm(1) = 5.033514325186558 
   celldm(3) = 3.1365700194606507 
   ecutwfc = 80 
   occupations = 'smearing' 
   smearing = 'marzari-vanderbilt' 
   degauss = 0.02 
&end 
&ELECTRONS 
   conv_thr =  1e-08 
   mixing_beta = 0.7 
   electron_maxstep =100
&end 
&IONS 
   ion_dynamics = 'bfgs' 
   upscale = 100.0
   trust_radius_max = 0.8
&end 
&CELL 
   cell_dynamics = 'bfgs' 
   cell_dofree = 'ibrav' 
   cell_factor = 4.0 
   press_conv_thr = 1.0 
   press = 500.0 
&end 

ATOMIC_SPECIES 
   B   10.811    B_ONCV_PBE_sr.upf 
   F   18.9984032    F_ONCV_PBE_sr.upf 

ATOMIC_POSITIONS crystal 
   B    0.33333333    0.66666667    0.5566025    
   B    0.66666667    0.33333333    0.4433975    
   B    0.33333333    0.66666667    0.7461405    
   B    0.66666667    0.33333333    0.2538595    
   B    0.33333333    0.66666667    0.3537685    
   B    0.66666667    0.33333333    0.6462315000000001    
   F    0.33333333    0.66666667    0.9016215    
   F    0.66666667    0.33333333    0.09837850000000004    
K_POINTS automatic 
9  9  3    0  0  0  
