&CONTROL 
   calculation = 'vc-relax'
   restart_mode = 'from_scratch' 
   prefix = 'B3S' 
   tstress = .true. 
   tprnfor = .true. 
   pseudo_dir = '../pseudo' 
   outdir = './output' 
   forc_conv_thr = 0.001
   etot_conv_thr = 0.0001
&end 
&SYSTEM 
   ibrav = 4 
   nat = 8 
   ntyp = 2 
   celldm(1) = 8.057377851477963 
   celldm(3) = 0.9869886108964816 
   ecutwfc = 80 
   occupations = 'smearing' 
   smearing = 'marzari-vanderbilt' 
   degauss = 0.02 
&end 
&ELECTRONS 
   conv_thr =  1e-08 
   mixing_beta = 0.7 
   electron_maxstep =100
&end 
&IONS 
   ion_dynamics = 'bfgs' 
   upscale = 100.0
   trust_radius_max = 0.8
&end 
&CELL 
   cell_dynamics = 'bfgs' 
   cell_dofree = 'ibrav' 
   cell_factor = 4.0 
   press_conv_thr = 1.0 
   press = 500.0 
&end 

ATOMIC_SPECIES 
   B   10.811    B_ONCV_PBE_sr.upf 
   S   32.065    S_ONCV_PBE_sr.upf 

ATOMIC_POSITIONS crystal 
   B    0.12820967    0.25641933    0.160705    
   B    0.8717903300000001    0.74358067    0.839295    
   B    0.74358067    0.87179034    0.160705    
   B    0.25641933    0.12820966    0.839295    
   B    0.12820966000000003    0.8717903300000001    0.160705    
   B    0.87179034    0.12820967    0.839295    
   S    0.33333333    0.66666667    0.380003    
   S    0.66666667    0.33333333    0.619997    
K_POINTS automatic 
6  6  6    0  0  0  
