&CONTROL 
   calculation = 'vc-relax'
   restart_mode = 'from_scratch' 
   prefix = 'BC3' 
   tstress = .true. 
   tprnfor = .true. 
   pseudo_dir = '../pseudo' 
   outdir = './output' 
   forc_conv_thr = 0.001
   etot_conv_thr = 0.0001
&end 
&SYSTEM 
   ibrav = 6 
   nat = 8 
   ntyp = 2 
   celldm(1) = 4.549841982830813 
   celldm(3) = 3.1395693329875716 
   ecutwfc = 80 
   occupations = 'smearing' 
   smearing = 'marzari-vanderbilt' 
   degauss = 0.02 
&end 
&ELECTRONS 
   conv_thr =  1e-08 
   mixing_beta = 0.7 
   electron_maxstep =100
&end 
&IONS 
   ion_dynamics = 'bfgs' 
   upscale = 100.0
   trust_radius_max = 0.8
&end 
&CELL 
   cell_dynamics = 'bfgs' 
   cell_dofree = 'ibrav' 
   cell_factor = 4.0 
   press_conv_thr = 1.0 
   press = 500.0 
&end 

ATOMIC_SPECIES 
   B   10.811    B_ONCV_PBE_sr.upf 
   C   12.0107    C_ONCV_PBE_sr.upf 

ATOMIC_POSITIONS crystal 
   B    0.0    0.5    0.8656105    
   B    0.5    0.0    0.13438950000000005    
   C    0.0    0.0    0.2707735    
   C    0.0    0.0    0.7292265    
   C    0.0    0.5    0.3837195    
   C    0.5    0.0    0.6162805    
   C    0.5    0.5    0.0    
   C    0.5    0.5    0.5    
K_POINTS automatic 
10  10  3    0  0  0  
