&CONTROL 
   calculation = 'vc-relax'
   restart_mode = 'from_scratch' 
   prefix = 'C3F' 
   tstress = .true. 
   tprnfor = .true. 
   pseudo_dir = '../pseudo' 
   outdir = './output' 
   forc_conv_thr = 0.001
   etot_conv_thr = 0.0001
&end 
&SYSTEM 
   ibrav = 5 
   nat = 8 
   ntyp = 2 
   celldm(1) = 17.09844938057251 
   celldm(4) = 0.9635803090322355 
   ecutwfc = 80 
   occupations = 'smearing' 
   smearing = 'marzari-vanderbilt' 
   degauss = 0.02 
&end 
&ELECTRONS 
   conv_thr =  1e-08 
   mixing_beta = 0.7 
   electron_maxstep =100
&end 
&IONS 
   ion_dynamics = 'bfgs' 
   upscale = 100.0
   trust_radius_max = 0.8
&end 
&CELL 
   cell_dynamics = 'bfgs' 
   cell_dofree = 'ibrav' 
   cell_factor = 4.0 
   press_conv_thr = 1.0 
   press = 500.0 
&end 

ATOMIC_SPECIES 
   C   12.0107    C_ONCV_PBE_sr.upf 
   F   18.9984032    F_ONCV_PBE_sr.upf 

ATOMIC_POSITIONS crystal 
   C    0.17597800000000002    0.17597800000000002    0.17597800000000002    
   C    0.8240220000000003    0.8240220000000003    0.8240220000000003    
   C    0.23191133000000005    0.23191133000000005    0.23191133000000005    
   C    0.7680886700000003    0.7680886700000003    0.7680886700000003    
   C    0.4164813300000001    0.4164813300000001    0.4164813300000001    
   C    0.5835186700000001    0.5835186700000001    0.5835186700000001    
   F    0.36654400000000004    0.36654400000000004    0.36654400000000004    
   F    0.6334560000000001    0.6334560000000001    0.6334560000000001    
K_POINTS automatic 
3  3  3    0  0  0  
