&CONTROL 
   calculation = 'vc-relax'
   restart_mode = 'from_scratch' 
   prefix = 'HC3' 
   tstress = .true. 
   tprnfor = .true. 
   pseudo_dir = '../pseudo' 
   outdir = './output' 
   forc_conv_thr = 0.001
   etot_conv_thr = 0.0001
&end 
&SYSTEM 
   ibrav = 5 
   nat = 8 
   ntyp = 2 
   celldm(1) = 14.209163652929245 
   celldm(4) = 0.9472839253729813 
   ecutwfc = 80 
   occupations = 'smearing' 
   smearing = 'marzari-vanderbilt' 
   degauss = 0.02 
&end 
&ELECTRONS 
   conv_thr =  1e-08 
   mixing_beta = 0.7 
   electron_maxstep =100
&end 
&IONS 
   ion_dynamics = 'bfgs' 
   upscale = 100.0
   trust_radius_max = 0.8
&end 
&CELL 
   cell_dynamics = 'bfgs' 
   cell_dofree = 'ibrav' 
   cell_factor = 4.0 
   press_conv_thr = 1.0 
   press = 500.0 
&end 

ATOMIC_SPECIES 
   H   1.00794    H_ONCV_PBE_sr.upf 
   C   12.0107    C_ONCV_PBE_sr.upf 

ATOMIC_POSITIONS crystal 
   H    0.35078299999999996    0.35078299999999996    0.35078299999999996    
   H    0.6492169999999998    0.6492169999999998    0.6492169999999998    
   C    0.39931832999999994    0.39931832999999994    0.39931832999999994    
   C    0.6006816699999998    0.6006816699999998    0.6006816699999998    
   C    0.7540939999999999    0.7540939999999999    0.7540939999999999    
   C    0.24590599999999993    0.24590599999999993    0.24590599999999993    
   C    0.8218896699999999    0.8218896699999999    0.8218896699999999    
   C    0.17811032999999996    0.17811032999999996    0.17811032999999996    
K_POINTS automatic 
3  3  3    0  0  0  
