&CONTROL 
   calculation = 'vc-relax'
   restart_mode = 'from_scratch' 
   prefix = 'AlCl3' 
   tstress = .true. 
   tprnfor = .true. 
   pseudo_dir = '../pseudo' 
   outdir = './output' 
   forc_conv_thr = 0.001
   etot_conv_thr = 0.0001
&end 
&SYSTEM 
   ibrav = 4 
   nat = 8 
   ntyp = 2 
   celldm(1) = 9.728958780590405 
   celldm(3) = 0.9208486749596582 
   ecutwfc = 80 
   occupations = 'smearing' 
   smearing = 'marzari-vanderbilt' 
   degauss = 0.02 
&end 
&ELECTRONS 
   conv_thr =  1e-08 
   mixing_beta = 0.7 
   electron_maxstep =100
&end 
&IONS 
   ion_dynamics = 'bfgs' 
   upscale = 100.0
   trust_radius_max = 0.8
&end 
&CELL 
   cell_dynamics = 'bfgs' 
   cell_dofree = 'ibrav' 
   cell_factor = 4.0 
   press_conv_thr = 1.0 
   press = 500.0 
&end 

ATOMIC_SPECIES 
   Al   26.9815386    Al_ONCV_PBE_sr.upf 
   Cl   35.453    Cl_ONCV_PBE_sr.upf 

ATOMIC_POSITIONS crystal 
   Al    0.33333333    0.66666667    0.5    
   Al    0.66666667    0.33333333    0.5    
   Cl    1.2252193287658506e-17    0.3206495    0.2329765    
   Cl    2.595835526351187e-17    0.6793505    0.7670235    
   Cl    0.6793505    0.6793505    0.2329765    
   Cl    0.3206495    0.3206495    0.7670235    
   Cl    0.3206495    0.0    0.2329765    
   Cl    0.6793505    0.0    0.7670235    
K_POINTS automatic 
5  5  5    0  0  0  
