&CONTROL 
   calculation = 'vc-relax'
   restart_mode = 'from_scratch' 
   prefix = 'AlCl3' 
   tstress = .true. 
   tprnfor = .true. 
   pseudo_dir = '../pseudo' 
   outdir = './output' 
   forc_conv_thr = 0.001
   etot_conv_thr = 0.0001
&end 
&SYSTEM 
   ibrav = 5 
   nat = 8 
   ntyp = 2 
   celldm(1) = 10.564033283972451 
   celldm(4) = 0.5760667337547797 
   ecutwfc = 80 
   occupations = 'smearing' 
   smearing = 'marzari-vanderbilt' 
   degauss = 0.02 
&end 
&ELECTRONS 
   conv_thr =  1e-08 
   mixing_beta = 0.7 
   electron_maxstep =100
&end 
&IONS 
   ion_dynamics = 'bfgs' 
   upscale = 100.0
   trust_radius_max = 0.8
&end 
&CELL 
   cell_dynamics = 'bfgs' 
   cell_dofree = 'ibrav' 
   cell_factor = 4.0 
   press_conv_thr = 1.0 
   press = 500.0 
&end 

ATOMIC_SPECIES 
   Al   26.9815386    Al_ONCV_PBE_sr.upf 
   Cl   35.453    Cl_ONCV_PBE_sr.upf 

ATOMIC_POSITIONS crystal 
   Al    0.3332915    0.3332915    0.3332915    
   Al    0.6667084999999999    0.6667084999999999    0.6667084999999999    
   Cl    1.2315605    0.5900144999999999    0.9110514999999999    
   Cl    -0.23156049999999995    -0.5900145000000002    1.0889484999999999    
   Cl    0.9110515000000001    0.23156049999999972    1.5900144999999997    
   Cl    0.0889485000000001    -0.23156050000000006    0.40998549999999995    
   Cl    1.5900145    -0.08894850000000021    1.2315604999999998    
   Cl    -0.5900145    0.08894849999999982    0.7684394999999999    
K_POINTS automatic 
4  4  4    0  0  0  
