&CONTROL 
   calculation = 'vc-relax'
   restart_mode = 'from_scratch' 
   prefix = 'CCl3' 
   tstress = .true. 
   tprnfor = .true. 
   pseudo_dir = '../pseudo' 
   outdir = './output' 
   forc_conv_thr = 0.001
   etot_conv_thr = 0.0001
&end 
&SYSTEM 
   ibrav = 5 
   nat = 8 
   ntyp = 2 
   celldm(1) = 10.465123940228802 
   celldm(4) = 0.6198498509577721 
   ecutwfc = 80 
   occupations = 'smearing' 
   smearing = 'marzari-vanderbilt' 
   degauss = 0.02 
&end 
&ELECTRONS 
   conv_thr =  1e-08 
   mixing_beta = 0.7 
   electron_maxstep =100
&end 
&IONS 
   ion_dynamics = 'bfgs' 
   upscale = 100.0
   trust_radius_max = 0.8
&end 
&CELL 
   cell_dynamics = 'bfgs' 
   cell_dofree = 'ibrav' 
   cell_factor = 4.0 
   press_conv_thr = 1.0 
   press = 500.0 
&end 

ATOMIC_SPECIES 
   C   12.0107    C_ONCV_PBE_sr.upf 
   Cl   35.453    Cl_ONCV_PBE_sr.upf 

ATOMIC_POSITIONS crystal 
   C    0.05221233    0.05221233    0.05221233    
   C    0.94778767    0.94778767    0.94778767    
   Cl    1.0895590100000003    -0.25478500000000015    0.42269599999999996    
   Cl    -0.0895590100000001    0.25478499999999976    1.5773039999999998    
   Cl    0.422696    0.08955901    0.7452149999999998    
   Cl    0.5773040000000002    -0.08955901000000033    1.2547849999999998    
   Cl    0.7452150000000002    -0.5773040000000004    1.0895590099999999    
   Cl    0.2547850000000001    0.5773039999999999    0.9104409899999999    
K_POINTS automatic 
5  5  5    0  0  0  
