&CONTROL 
   calculation = 'vc-relax'
   restart_mode = 'from_scratch' 
   prefix = 'CCl3' 
   tstress = .true. 
   tprnfor = .true. 
   pseudo_dir = '../pseudo' 
   outdir = './output' 
   forc_conv_thr = 0.001
   etot_conv_thr = 0.0001
&end 
&SYSTEM 
   ibrav = 4 
   nat = 8 
   ntyp = 2 
   celldm(1) = 9.100776265160956 
   celldm(3) = 0.9993183446369531 
   ecutwfc = 80 
   occupations = 'smearing' 
   smearing = 'marzari-vanderbilt' 
   degauss = 0.02 
&end 
&ELECTRONS 
   conv_thr =  1e-08 
   mixing_beta = 0.7 
   electron_maxstep =100
&end 
&IONS 
   ion_dynamics = 'bfgs' 
   upscale = 100.0
   trust_radius_max = 0.8
&end 
&CELL 
   cell_dynamics = 'bfgs' 
   cell_dofree = 'ibrav' 
   cell_factor = 4.0 
   press_conv_thr = 1.0 
   press = 500.0 
&end 

ATOMIC_SPECIES 
   C   12.0107    C_ONCV_PBE_sr.upf 
   Cl   35.453    Cl_ONCV_PBE_sr.upf 

ATOMIC_POSITIONS crystal 
   C    0.0    0.0    0.343507    
   C    0.0    0.0    0.656493    
   Cl    1.2999839985884982e-17    0.340216    0.755788    
   Cl    2.5210708565285393e-17    0.6597839999999999    0.24421199999999998    
   Cl    0.6597839999999999    0.6597839999999999    0.755788    
   Cl    0.340216    0.340216    0.24421199999999998    
   Cl    0.340216    0.0    0.755788    
   Cl    0.6597839999999999    0.0    0.24421199999999998    
K_POINTS automatic 
5  5  5    0  0  0  
