&CONTROL 
   calculation = 'vc-relax'
   restart_mode = 'from_scratch' 
   prefix = 'LiC3' 
   tstress = .true. 
   tprnfor = .true. 
   pseudo_dir = '../pseudo' 
   outdir = './output' 
   forc_conv_thr = 0.001
   etot_conv_thr = 0.0001
&end 
&SYSTEM 
   ibrav = 5 
   nat = 8 
   ntyp = 2 
   celldm(1) = 7.315719580070103 
   celldm(4) = 0.3972220819693017 
   ecutwfc = 80 
   occupations = 'smearing' 
   smearing = 'marzari-vanderbilt' 
   degauss = 0.02 
&end 
&ELECTRONS 
   conv_thr =  1e-08 
   mixing_beta = 0.7 
   electron_maxstep =100
&end 
&IONS 
   ion_dynamics = 'bfgs' 
   upscale = 100.0
   trust_radius_max = 0.8
&end 
&CELL 
   cell_dynamics = 'bfgs' 
   cell_dofree = 'ibrav' 
   cell_factor = 4.0 
   press_conv_thr = 1.0 
   press = 500.0 
&end 

ATOMIC_SPECIES 
   Li   6.941    Li_ONCV_PBE_sr.upf 
   C   12.0107    C_ONCV_PBE_sr.upf 

ATOMIC_POSITIONS crystal 
   Li    0.1673095    0.1673095    0.1673095    
   Li    0.8326905    0.8326905    0.8326905    
   C    0.33374200000000004    -0.333742    -6.518705358798475e-17    
   C    0.6662580000000001    -0.666258    -1.30134642776227e-16    
   C    0.0    -0.6662580000000001    0.6662579999999999    
   C    0.0    -0.33374200000000004    0.3337419999999999    
   C    -0.33374200000000004    -7.79244124725485e-17    0.333742    
   C    -0.6662580000000001    -1.555625699047025e-16    0.666258    
K_POINTS automatic 
6  6  6    0  0  0  
