&CONTROL 
   calculation = 'vc-relax'
   restart_mode = 'from_scratch' 
   prefix = 'LiC3' 
   tstress = .true. 
   tprnfor = .true. 
   pseudo_dir = '../pseudo' 
   outdir = './output' 
   forc_conv_thr = 0.001
   etot_conv_thr = 0.0001
&end 
&SYSTEM 
   ibrav = 4 
   nat = 8 
   ntyp = 2 
   celldm(1) = 8.021897525237105 
   celldm(3) = 0.7116001225100933 
   ecutwfc = 80 
   occupations = 'smearing' 
   smearing = 'marzari-vanderbilt' 
   degauss = 0.02 
&end 
&ELECTRONS 
   conv_thr =  1e-08 
   mixing_beta = 0.7 
   electron_maxstep =100
&end 
&IONS 
   ion_dynamics = 'bfgs' 
   upscale = 100.0
   trust_radius_max = 0.8
&end 
&CELL 
   cell_dynamics = 'bfgs' 
   cell_dofree = 'ibrav' 
   cell_factor = 4.0 
   press_conv_thr = 1.0 
   press = 500.0 
&end 

ATOMIC_SPECIES 
   Li   6.941    Li_ONCV_PBE_sr.upf 
   C   12.0107    C_ONCV_PBE_sr.upf 

ATOMIC_POSITIONS crystal 
   Li    0.33333333    0.66666667    0.5    
   Li    0.66666667    0.33333333    0.5    
   C    1.2676502324044977e-17    0.331754    0.0    
   C    2.55340462271254e-17    0.668246    0.0    
   C    0.668246    0.0    0.0    
   C    0.331754    0.0    0.0    
   C    0.668246    0.668246    0.0    
   C    0.331754    0.331754    0.0    
K_POINTS automatic 
6  6  8    0  0  0  
