&CONTROL 
   calculation = 'vc-relax'
   restart_mode = 'from_scratch' 
   prefix = 'C3N' 
   tstress = .true. 
   tprnfor = .true. 
   pseudo_dir = '../pseudo' 
   outdir = './output' 
   forc_conv_thr = 0.001
   etot_conv_thr = 0.0001
&end 
&SYSTEM 
   ibrav = 5 
   nat = 8 
   ntyp = 2 
   celldm(1) = 16.84520923188206 
   celldm(4) = 0.964569114845142 
   ecutwfc = 80 
   occupations = 'smearing' 
   smearing = 'marzari-vanderbilt' 
   degauss = 0.02 
&end 
&ELECTRONS 
   conv_thr =  1e-08 
   mixing_beta = 0.7 
   electron_maxstep =100
&end 
&IONS 
   ion_dynamics = 'bfgs' 
   upscale = 100.0
   trust_radius_max = 0.8
&end 
&CELL 
   cell_dynamics = 'bfgs' 
   cell_dofree = 'ibrav' 
   cell_factor = 4.0 
   press_conv_thr = 1.0 
   press = 500.0 
&end 

ATOMIC_SPECIES 
   C   12.0107    C_ONCV_PBE_sr.upf 
   N   14.0067    N_ONCV_PBE_sr.upf 

ATOMIC_POSITIONS crystal 
   C    0.08503200000000001    0.08503200000000001    0.08503200000000001    
   C    0.14222900000000002    0.14222900000000002    0.14222900000000002    
   C    0.3415583300000001    0.3415583300000001    0.3415583300000001    
   C    0.3990070000000001    0.3990070000000001    0.3990070000000001    
   C    0.9304416700000002    0.9304416700000002    0.9304416700000002    
   C    0.9887610000000002    0.9887610000000002    0.9887610000000002    
   N    0.24540100000000006    0.24540100000000006    0.24540100000000006    
   N    0.8270330000000002    0.8270330000000002    0.8270330000000002    
K_POINTS automatic 
3  3  3    0  0  0  
