&CONTROL 
   calculation = 'vc-relax'
   restart_mode = 'from_scratch' 
   prefix = 'AlF3' 
   tstress = .true. 
   tprnfor = .true. 
   pseudo_dir = '../pseudo' 
   outdir = './output' 
   forc_conv_thr = 0.001
   etot_conv_thr = 0.0001
&end 
&SYSTEM 
   ibrav = 6 
   nat = 8 
   ntyp = 2 
   celldm(1) = 8.648047621313372 
   celldm(3) = 0.7339990516896032 
   ecutwfc = 80 
   occupations = 'smearing' 
   smearing = 'marzari-vanderbilt' 
   degauss = 0.02 
&end 
&ELECTRONS 
   conv_thr =  1e-08 
   mixing_beta = 0.7 
   electron_maxstep =100
&end 
&IONS 
   ion_dynamics = 'bfgs' 
   upscale = 100.0
   trust_radius_max = 0.8
&end 
&CELL 
   cell_dynamics = 'bfgs' 
   cell_dofree = 'ibrav' 
   cell_factor = 4.0 
   press_conv_thr = 1.0 
   press = 500.0 
&end 

ATOMIC_SPECIES 
   Al   26.9815386    Al_ONCV_PBE_sr.upf 
   F   18.9984032    F_ONCV_PBE_sr.upf 

ATOMIC_POSITIONS crystal 
   Al    0.0    0.0    0.0    
   Al    0.5    0.5    0.0    
   F    0.168579    0.668579    0.0    
   F    0.831421    0.33142099999999997    0.0    
   F    0.33142099999999997    0.168579    0.0    
   F    0.668579    0.831421    0.0    
   F    0.0    0.0    0.5    
   F    0.5    0.5    0.5    
K_POINTS automatic 
5  5  7    0  0  0  
