&CONTROL 
   calculation = 'vc-relax'
   restart_mode = 'from_scratch' 
   prefix = 'CF3' 
   tstress = .true. 
   tprnfor = .true. 
   pseudo_dir = '../pseudo' 
   outdir = './output' 
   forc_conv_thr = 0.001
   etot_conv_thr = 0.0001
&end 
&SYSTEM 
   ibrav = 4 
   nat = 8 
   ntyp = 2 
   celldm(1) = 7.341658610641488 
   celldm(3) = 1.1104743620797304 
   ecutwfc = 80 
   occupations = 'smearing' 
   smearing = 'marzari-vanderbilt' 
   degauss = 0.02 
&end 
&ELECTRONS 
   conv_thr =  1e-08 
   mixing_beta = 0.7 
   electron_maxstep =100
&end 
&IONS 
   ion_dynamics = 'bfgs' 
   upscale = 100.0
   trust_radius_max = 0.8
&end 
&CELL 
   cell_dynamics = 'bfgs' 
   cell_dofree = 'ibrav' 
   cell_factor = 4.0 
   press_conv_thr = 1.0 
   press = 500.0 
&end 

ATOMIC_SPECIES 
   C   12.0107    C_ONCV_PBE_sr.upf 
   F   18.9984032    F_ONCV_PBE_sr.upf 

ATOMIC_POSITIONS crystal 
   C    0.0    0.0    0.3301885    
   C    0.0    0.0    0.6698115    
   F    1.2219962689955594e-17    0.319806    0.2345805    
   F    2.5990585861214784e-17    0.680194    0.7654195    
   F    0.680194    0.680194    0.2345805    
   F    0.319806    0.319806    0.7654195    
   F    0.319806    0.0    0.2345805    
   F    0.680194    0.0    0.7654195    
K_POINTS automatic 
6  6  6    0  0  0  
