&CONTROL 
   calculation = 'vc-relax'
   restart_mode = 'from_scratch' 
   prefix = 'PF3' 
   tstress = .true. 
   tprnfor = .true. 
   pseudo_dir = '../pseudo' 
   outdir = './output' 
   forc_conv_thr = 0.001
   etot_conv_thr = 0.0001
&end 
&SYSTEM 
   ibrav = 5 
   nat = 8 
   ntyp = 2 
   celldm(1) = 7.763154751961921 
   celldm(4) = -0.08258488015892139 
   ecutwfc = 80 
   occupations = 'smearing' 
   smearing = 'marzari-vanderbilt' 
   degauss = 0.02 
&end 
&ELECTRONS 
   conv_thr =  1e-08 
   mixing_beta = 0.7 
   electron_maxstep =100
&end 
&IONS 
   ion_dynamics = 'bfgs' 
   upscale = 100.0
   trust_radius_max = 0.8
&end 
&CELL 
   cell_dynamics = 'bfgs' 
   cell_dofree = 'ibrav' 
   cell_factor = 4.0 
   press_conv_thr = 1.0 
   press = 500.0 
&end 

ATOMIC_SPECIES 
   P   30.973762    P_ONCV_PBE_sr.upf 
   F   18.9984032    F_ONCV_PBE_sr.upf 

ATOMIC_POSITIONS crystal 
   P    0.221928    0.22192799999999993    0.221928    
   P    0.778072    0.7780719999999998    0.778072    
   F    1.403975    -0.16479199999999994    0.7081919999999998    
   F    -0.403975    0.1647919999999998    1.2918079999999996    
   F    0.7081919999999999    0.40397499999999986    0.8352079999999998    
   F    0.29180800000000007    -0.40397500000000003    1.1647919999999996    
   F    0.835208    -0.2918080000000002    1.4039749999999995    
   F    0.16479200000000008    0.29180799999999996    0.5960249999999999    
K_POINTS automatic 
6  6  6    0  0  0  
