&CONTROL 
   calculation = 'vc-relax'
   restart_mode = 'from_scratch' 
   prefix = 'SiF3' 
   tstress = .true. 
   tprnfor = .true. 
   pseudo_dir = '../pseudo' 
   outdir = './output' 
   forc_conv_thr = 0.001
   etot_conv_thr = 0.0001
&end 
&SYSTEM 
   ibrav = 7 
   nat = 8 
   ntyp = 2 
   celldm(1) = 6.479220900566942 
   celldm(3) = 3.149435168041631 
   ecutwfc = 80 
   occupations = 'smearing' 
   smearing = 'marzari-vanderbilt' 
   degauss = 0.02 
&end 
&ELECTRONS 
   conv_thr =  1e-08 
   mixing_beta = 0.7 
   electron_maxstep =100
&end 
&IONS 
   ion_dynamics = 'bfgs' 
   upscale = 100.0
   trust_radius_max = 0.8
&end 
&CELL 
   cell_dynamics = 'bfgs' 
   cell_dofree = 'ibrav' 
   cell_factor = 4.0 
   press_conv_thr = 1.0 
   press = 500.0 
&end 

ATOMIC_SPECIES 
   Si   28.0855    Si_ONCV_PBE_sr.upf 
   F   18.9984032    F_ONCV_PBE_sr.upf 

ATOMIC_POSITIONS crystal 
   Si    0.0    0.3962055    0.3962055    
   Si    0.0    0.6037945    0.6037945    
   F    -0.5    0.6065245    0.1065245    
   F    -0.5    1.3934755    0.8934755    
   F    0.5    0.1065245    -0.3934755    
   F    0.5    0.8934755    0.3934755    
   F    0.0    0.2521505    0.2521505    
   F    0.0    0.7478495000000001    0.7478495000000001    
K_POINTS automatic 
7  7  2    0  0  0  
