&CONTROL 
   calculation = 'vc-relax'
   restart_mode = 'from_scratch' 
   prefix = 'Li3Cl' 
   tstress = .true. 
   tprnfor = .true. 
   pseudo_dir = '../pseudo' 
   outdir = './output' 
   forc_conv_thr = 0.001
   etot_conv_thr = 0.0001
&end 
&SYSTEM 
   ibrav = 5 
   nat = 8 
   ntyp = 2 
   celldm(1) = 18.004889081104757 
   celldm(4) = 0.9507191081163135 
   ecutwfc = 80 
   occupations = 'smearing' 
   smearing = 'marzari-vanderbilt' 
   degauss = 0.02 
&end 
&ELECTRONS 
   conv_thr =  1e-08 
   mixing_beta = 0.7 
   electron_maxstep =100
&end 
&IONS 
   ion_dynamics = 'bfgs' 
   upscale = 100.0
   trust_radius_max = 0.8
&end 
&CELL 
   cell_dynamics = 'bfgs' 
   cell_dofree = 'ibrav' 
   cell_factor = 4.0 
   press_conv_thr = 1.0 
   press = 500.0 
&end 

ATOMIC_SPECIES 
   Li   6.941    Li_ONCV_PBE_sr.upf 
   Cl   35.453    Cl_ONCV_PBE_sr.upf 

ATOMIC_POSITIONS crystal 
   Li    0.013319670000000004    0.013319670000000004    0.013319670000000004    
   Li    0.30803067000000006    0.30803067000000006    0.30803067000000006    
   Li    0.3910290000000001    0.3910290000000001    0.3910290000000001    
   Li    0.6059263300000001    0.6059263300000001    0.6059263300000001    
   Li    0.8098053300000002    0.8098053300000002    0.8098053300000002    
   Li    0.8967170000000002    0.8967170000000002    0.8967170000000002    
   Cl    0.09804300000000003    0.09804300000000003    0.09804300000000003    
   Cl    0.5225300000000002    0.5225300000000002    0.5225300000000002    
K_POINTS automatic 
3  3  3    0  0  0  
