&CONTROL 
   calculation = 'vc-relax'
   restart_mode = 'from_scratch' 
   prefix = 'Li3H' 
   tstress = .true. 
   tprnfor = .true. 
   pseudo_dir = '../pseudo' 
   outdir = './output' 
   forc_conv_thr = 0.001
   etot_conv_thr = 0.0001
&end 
&SYSTEM 
   ibrav = 4 
   nat = 8 
   ntyp = 2 
   celldm(1) = 7.4853279122778416 
   celldm(3) = 0.9765423284793264 
   ecutwfc = 80 
   occupations = 'smearing' 
   smearing = 'marzari-vanderbilt' 
   degauss = 0.02 
&end 
&ELECTRONS 
   conv_thr =  1e-08 
   mixing_beta = 0.7 
   electron_maxstep =100
&end 
&IONS 
   ion_dynamics = 'bfgs' 
   upscale = 100.0
   trust_radius_max = 0.8
&end 
&CELL 
   cell_dynamics = 'bfgs' 
   cell_dofree = 'ibrav' 
   cell_factor = 4.0 
   press_conv_thr = 1.0 
   press = 500.0 
&end 

ATOMIC_SPECIES 
   Li   6.941    Li_ONCV_PBE_sr.upf 
   H   1.00794    H_ONCV_PBE_sr.upf 

ATOMIC_POSITIONS crystal 
   Li    1.2827242938079346e-17    0.335699    0.249834    
   Li    2.5383305613091034e-17    0.664301    0.750166    
   Li    0.664301    0.664301    0.249834    
   Li    0.335699    0.335699    0.750166    
   Li    0.335699    0.0    0.249834    
   Li    0.664301    0.0    0.750166    
   H    0.33333333    0.66666667    0.0    
   H    0.66666667    0.33333333    0.0    
K_POINTS automatic 
6  6  6    0  0  0  
