&CONTROL 
   calculation = 'vc-relax'
   restart_mode = 'from_scratch' 
   prefix = 'Li3O' 
   tstress = .true. 
   tprnfor = .true. 
   pseudo_dir = '../pseudo' 
   outdir = './output' 
   forc_conv_thr = 0.001
   etot_conv_thr = 0.0001
&end 
&SYSTEM 
   ibrav = 4 
   nat = 8 
   ntyp = 2 
   celldm(1) = 5.50974891335314 
   celldm(3) = 2.4373509044029213 
   ecutwfc = 80 
   occupations = 'smearing' 
   smearing = 'marzari-vanderbilt' 
   degauss = 0.02 
&end 
&ELECTRONS 
   conv_thr =  1e-08 
   mixing_beta = 0.7 
   electron_maxstep =100
&end 
&IONS 
   ion_dynamics = 'bfgs' 
   upscale = 100.0
   trust_radius_max = 0.8
&end 
&CELL 
   cell_dynamics = 'bfgs' 
   cell_dofree = 'ibrav' 
   cell_factor = 4.0 
   press_conv_thr = 1.0 
   press = 500.0 
&end 

ATOMIC_SPECIES 
   Li   6.941    Li_ONCV_PBE_sr.upf 
   O   15.9994    O_ONCV_PBE_sr.upf 

ATOMIC_POSITIONS crystal 
   Li    0.0    0.0    0.2459075    
   Li    0.0    0.0    0.7540925    
   Li    0.33333333    0.66666667    0.5851585    
   Li    0.66666667    0.33333333    0.4148415    
   Li    0.33333333    0.66666667    0.0869365    
   Li    0.66666667    0.33333333    0.9130635    
   O    0.33333333    0.66666667    0.3325435    
   O    0.66666667    0.33333333    0.6674565    
K_POINTS automatic 
9  9  4    0  0  0  
