&CONTROL 
   calculation = 'vc-relax'
   restart_mode = 'from_scratch' 
   prefix = 'Mg3H' 
   tstress = .true. 
   tprnfor = .true. 
   pseudo_dir = '../pseudo' 
   outdir = './output' 
   forc_conv_thr = 0.001
   etot_conv_thr = 0.0001
&end 
&SYSTEM 
   ibrav = 5 
   nat = 8 
   ntyp = 2 
   celldm(1) = 9.713594147291127 
   celldm(4) = 0.5722952455926821 
   ecutwfc = 80 
   occupations = 'smearing' 
   smearing = 'marzari-vanderbilt' 
   degauss = 0.02 
&end 
&ELECTRONS 
   conv_thr =  1e-08 
   mixing_beta = 0.7 
   electron_maxstep =100
&end 
&IONS 
   ion_dynamics = 'bfgs' 
   upscale = 100.0
   trust_radius_max = 0.8
&end 
&CELL 
   cell_dynamics = 'bfgs' 
   cell_dofree = 'ibrav' 
   cell_factor = 4.0 
   press_conv_thr = 1.0 
   press = 500.0 
&end 

ATOMIC_SPECIES 
   Mg   24.305    Mg_ONCV_PBE_sr.upf 
   H   1.00794    H_ONCV_PBE_sr.upf 

ATOMIC_POSITIONS crystal 
   Mg    0.341367    -0.341367    -2.3827377690757436e-17    
   Mg    3.3306690738754696e-16    -0.6586329999999999    0.6586329999999998    
   Mg    -0.3413669999999998    3.399330026098969e-17    0.34136699999999986    
   Mg    1.1690745000000002    -0.1690744999999999    0.5000000000000001    
   Mg    0.5000000000000002    0.16907450000000018    0.8309255    
   Mg    -0.16907449999999957    0.5000000000000002    1.1690744999999998    
   H    0.07983200000000001    0.07983200000000001    0.07983200000000001    
   H    0.9201680000000002    0.9201680000000002    0.9201680000000002    
K_POINTS automatic 
5  5  5    0  0  0  
