&CONTROL 
   calculation = 'vc-relax'
   restart_mode = 'from_scratch' 
   prefix = 'Mg3S' 
   tstress = .true. 
   tprnfor = .true. 
   pseudo_dir = '../pseudo' 
   outdir = './output' 
   forc_conv_thr = 0.001
   etot_conv_thr = 0.0001
&end 
&SYSTEM 
   ibrav = 5 
   nat = 8 
   ntyp = 2 
   celldm(1) = 10.389124257579295 
   celldm(4) = 0.5513723551732732 
   ecutwfc = 80 
   occupations = 'smearing' 
   smearing = 'marzari-vanderbilt' 
   degauss = 0.02 
&end 
&ELECTRONS 
   conv_thr =  1e-08 
   mixing_beta = 0.7 
   electron_maxstep =100
&end 
&IONS 
   ion_dynamics = 'bfgs' 
   upscale = 100.0
   trust_radius_max = 0.8
&end 
&CELL 
   cell_dynamics = 'bfgs' 
   cell_dofree = 'ibrav' 
   cell_factor = 4.0 
   press_conv_thr = 1.0 
   press = 500.0 
&end 

ATOMIC_SPECIES 
   Mg   24.305    Mg_ONCV_PBE_sr.upf 
   S   32.065    S_ONCV_PBE_sr.upf 

ATOMIC_POSITIONS crystal 
   Mg    0.6588984900000001    -0.1461174999999999    0.2725045    
   Mg    0.34110151000000055    0.14611750000000023    1.7274954999999999    
   Mg    0.2725045000000004    -0.34110150999999994    0.8538824999999999    
   Mg    0.7274955000000003    0.3411015100000002    1.1461175    
   Mg    0.8538825000000003    -0.7274954999999999    0.6588984899999999    
   Mg    0.14611750000000023    0.7274955000000002    1.34110151    
   S    0.19275850000000005    0.19275850000000005    0.19275850000000005    
   S    0.8072415000000002    0.8072415000000002    0.8072415000000002    
K_POINTS automatic 
5  5  5    0  0  0  
