&CONTROL 
   calculation = 'vc-relax'
   restart_mode = 'from_scratch' 
   prefix = 'Na3S' 
   tstress = .true. 
   tprnfor = .true. 
   pseudo_dir = '../pseudo' 
   outdir = './output' 
   forc_conv_thr = 0.001
   etot_conv_thr = 0.0001
&end 
&SYSTEM 
   ibrav = 4 
   nat = 8 
   ntyp = 2 
   celldm(1) = 9.958108124197059 
   celldm(3) = 0.767308393082891 
   ecutwfc = 80 
   occupations = 'smearing' 
   smearing = 'marzari-vanderbilt' 
   degauss = 0.02 
&end 
&ELECTRONS 
   conv_thr =  1e-08 
   mixing_beta = 0.7 
   electron_maxstep =100
&end 
&IONS 
   ion_dynamics = 'bfgs' 
   upscale = 100.0
   trust_radius_max = 0.8
&end 
&CELL 
   cell_dynamics = 'bfgs' 
   cell_dofree = 'ibrav' 
   cell_factor = 4.0 
   press_conv_thr = 1.0 
   press = 500.0 
&end 

ATOMIC_SPECIES 
   Na   22.98976928    Na_ONCV_PBE_sr.upf 
   S   32.065    S_ONCV_PBE_sr.upf 

ATOMIC_POSITIONS crystal 
   Na    0.17272300000000002    0.827277    0.75    
   Na    0.827277    0.17272299999999996    0.25    
   Na    0.3454459999999999    0.172723    0.25    
   Na    0.6545540000000001    0.827277    0.75    
   Na    0.17272299999999996    0.3454459999999999    0.75    
   Na    0.827277    0.6545540000000001    0.25    
   S    0.33333333    0.66666667    0.25    
   S    0.66666667    0.33333333    0.75    
K_POINTS automatic 
5  5  6    0  0  0  
