&CONTROL 
   calculation = 'vc-relax'
   restart_mode = 'from_scratch' 
   prefix = 'P3F' 
   tstress = .true. 
   tprnfor = .true. 
   pseudo_dir = '../pseudo' 
   outdir = './output' 
   forc_conv_thr = 0.001
   etot_conv_thr = 0.0001
&end 
&SYSTEM 
   ibrav = 6 
   nat = 8 
   ntyp = 2 
   celldm(1) = 5.939507406932179 
   celldm(3) = 2.671962135401548 
   ecutwfc = 80 
   occupations = 'smearing' 
   smearing = 'marzari-vanderbilt' 
   degauss = 0.02 
&end 
&ELECTRONS 
   conv_thr =  1e-08 
   mixing_beta = 0.7 
   electron_maxstep =100
&end 
&IONS 
   ion_dynamics = 'bfgs' 
   upscale = 100.0
   trust_radius_max = 0.8
&end 
&CELL 
   cell_dynamics = 'bfgs' 
   cell_dofree = 'ibrav' 
   cell_factor = 4.0 
   press_conv_thr = 1.0 
   press = 500.0 
&end 

ATOMIC_SPECIES 
   P   30.973762    P_ONCV_PBE_sr.upf 
   F   18.9984032    F_ONCV_PBE_sr.upf 

ATOMIC_POSITIONS crystal 
   P    0.0    0.5    0.276159    
   P    0.5    0.0    0.723841    
   P    0.0    0.5    0.742529    
   P    0.5    0.0    0.257471    
   P    0.0    0.5    0.999324    
   P    0.5    0.0    0.0006760000000000099    
   F    0.0    0.5    0.468446    
   F    0.5    0.0    0.5315540000000001    
K_POINTS automatic 
8  8  3    0  0  0  
