&CONTROL 
   calculation = 'vc-relax'
   restart_mode = 'from_scratch' 
   prefix = 'P3S' 
   tstress = .true. 
   tprnfor = .true. 
   pseudo_dir = '../pseudo' 
   outdir = './output' 
   forc_conv_thr = 0.001
   etot_conv_thr = 0.0001
&end 
&SYSTEM 
   ibrav = 4 
   nat = 8 
   ntyp = 2 
   celldm(1) = 5.902763326339954 
   celldm(3) = 3.508443476748627 
   ecutwfc = 80 
   occupations = 'smearing' 
   smearing = 'marzari-vanderbilt' 
   degauss = 0.02 
&end 
&ELECTRONS 
   conv_thr =  1e-08 
   mixing_beta = 0.7 
   electron_maxstep =100
&end 
&IONS 
   ion_dynamics = 'bfgs' 
   upscale = 100.0
   trust_radius_max = 0.8
&end 
&CELL 
   cell_dynamics = 'bfgs' 
   cell_dofree = 'ibrav' 
   cell_factor = 4.0 
   press_conv_thr = 1.0 
   press = 500.0 
&end 

ATOMIC_SPECIES 
   P   30.973762    P_ONCV_PBE_sr.upf 
   S   32.065    S_ONCV_PBE_sr.upf 

ATOMIC_POSITIONS crystal 
   P    0.0    0.0    0.1826625    
   P    0.0    0.0    0.8173375    
   P    0.33333333    0.66666667    0.9426155    
   P    0.66666667    0.33333333    0.05738449999999995    
   P    0.33333333    0.66666667    0.2967035    
   P    0.66666667    0.33333333    0.7032965    
   S    0.33333333    0.66666667    0.5852025    
   S    0.66666667    0.33333333    0.41479750000000004    
K_POINTS automatic 
8  8  2    0  0  0  
