&CONTROL 
   calculation = 'vc-relax'
   restart_mode = 'from_scratch' 
   prefix = 'SiP3' 
   tstress = .true. 
   tprnfor = .true. 
   pseudo_dir = '../pseudo' 
   outdir = './output' 
   forc_conv_thr = 0.001
   etot_conv_thr = 0.0001
&end 
&SYSTEM 
   ibrav = 6 
   nat = 8 
   ntyp = 2 
   celldm(1) = 6.046191782380671 
   celldm(3) = 2.8163432865743885 
   ecutwfc = 80 
   occupations = 'smearing' 
   smearing = 'marzari-vanderbilt' 
   degauss = 0.02 
&end 
&ELECTRONS 
   conv_thr =  1e-08 
   mixing_beta = 0.7 
   electron_maxstep =100
&end 
&IONS 
   ion_dynamics = 'bfgs' 
   upscale = 100.0
   trust_radius_max = 0.8
&end 
&CELL 
   cell_dynamics = 'bfgs' 
   cell_dofree = 'ibrav' 
   cell_factor = 4.0 
   press_conv_thr = 1.0 
   press = 500.0 
&end 

ATOMIC_SPECIES 
   Si   28.0855    Si_ONCV_PBE_sr.upf 
   P   30.973762    P_ONCV_PBE_sr.upf 

ATOMIC_POSITIONS crystal 
   Si    0.0    0.5    0.6249845    
   Si    0.5    0.0    0.37501549999999995    
   P    0.0    0.5    0.1237635    
   P    0.5    0.0    0.8762365    
   P    0.0    0.5    0.3743645    
   P    0.5    0.0    0.6256355    
   P    0.0    0.5    0.8738405    
   P    0.5    0.0    0.12615949999999998    
K_POINTS automatic 
8  8  3    0  0  0  
