&CONTROL 
   calculation = 'vc-relax'
   restart_mode = 'from_scratch' 
   prefix = 'S3Cl' 
   tstress = .true. 
   tprnfor = .true. 
   pseudo_dir = '../pseudo' 
   outdir = './output' 
   forc_conv_thr = 0.001
   etot_conv_thr = 0.0001
&end 
&SYSTEM 
   ibrav = 4 
   nat = 8 
   ntyp = 2 
   celldm(1) = 11.84644716030664 
   celldm(3) = 0.48123105711188285 
   ecutwfc = 80 
   occupations = 'smearing' 
   smearing = 'marzari-vanderbilt' 
   degauss = 0.02 
&end 
&ELECTRONS 
   conv_thr =  1e-08 
   mixing_beta = 0.7 
   electron_maxstep =100
&end 
&IONS 
   ion_dynamics = 'bfgs' 
   upscale = 100.0
   trust_radius_max = 0.8
&end 
&CELL 
   cell_dynamics = 'bfgs' 
   cell_dofree = 'ibrav' 
   cell_factor = 4.0 
   press_conv_thr = 1.0 
   press = 500.0 
&end 

ATOMIC_SPECIES 
   S   32.065    S_ONCV_PBE_sr.upf 
   Cl   35.453    Cl_ONCV_PBE_sr.upf 

ATOMIC_POSITIONS crystal 
   S    1.0761714420323004e-17    0.2816425    0.840364    
   S    2.7448834130847376e-17    0.7183575    0.159636    
   S    0.7183575    0.7183575    0.840364    
   S    0.2816425    0.2816425    0.159636    
   S    0.2816425    0.0    0.840364    
   S    0.7183575    0.0    0.159636    
   Cl    0.33333333    0.66666667    0.5    
   Cl    0.66666667    0.33333333    0.5    
K_POINTS automatic 
4  4  8    0  0  0  
