&CONTROL 
   calculation = 'vc-relax'
   restart_mode = 'from_scratch' 
   prefix = 'AlSi3' 
   tstress = .true. 
   tprnfor = .true. 
   pseudo_dir = '../pseudo' 
   outdir = './output' 
   forc_conv_thr = 0.001
   etot_conv_thr = 0.0001
&end 
&SYSTEM 
   ibrav = 5 
   nat = 4 
   ntyp = 2 
   celldm(1) = 6.857831454407517 
   celldm(4) = -0.157477819838974 
   ecutwfc = 80 
   occupations = 'smearing' 
   smearing = 'marzari-vanderbilt' 
   degauss = 0.02 
&end 
&ELECTRONS 
   conv_thr =  1e-08 
   mixing_beta = 0.7 
   electron_maxstep =100
&end 
&IONS 
   ion_dynamics = 'bfgs' 
   upscale = 100.0
   trust_radius_max = 0.8
&end 
&CELL 
   cell_dynamics = 'bfgs' 
   cell_dofree = 'ibrav' 
   cell_factor = 4.0 
   press_conv_thr = 1.0 
   press = 500.0 
&end 

ATOMIC_SPECIES 
   Al   26.9815386    Al_ONCV_PBE_sr.upf 
   Si   28.0855    Si_ONCV_PBE_sr.upf 

ATOMIC_POSITIONS crystal 
   Al    0.8887870000000002    0.888787    0.8887870000000002    
   Si    0.8242230000000004    -0.6259190000000001    0.37408099999999994    
   Si    0.37408100000000005    -0.1757769999999999    0.37408099999999994    
   Si    0.3740810000000001    -0.6259189999999999    0.824223    
K_POINTS automatic 
7  7  7    0  0  0  
