&CONTROL 
   calculation = 'vc-relax'
   restart_mode = 'from_scratch' 
   prefix = 'BN' 
   tstress = .true. 
   tprnfor = .true. 
   pseudo_dir = './pseudo' 
   outdir = './output' 
   forc_conv_thr = 0.001
   etot_conv_thr = 1e-05
&end 
&SYSTEM 
   ibrav = 4 
   nat = 4 
   ntyp = 2 
   celldm(1) = 7.441919175795774 
   celldm(3) = 1.6545299460925822 
   ecutwfc = 80 
   occupations = 'smearing' 
   smearing = 'marzari-vanderbilt' 
   degauss = 0.02 
&end 
&ELECTRONS 
   conv_thr =  1e-07 
   mixing_beta = 0.7 
&end 
&IONS 
   ion_dynamics = 'bfgs' 
&end 
&CELL 
   cell_dynamics = 'bfgs' 
   cell_dofree = 'ibrav' 
   press = 500.0 
&end 

ATOMIC_SPECIES 
Na 22.98976928 Na_ONCV_PBE_sr.upf
O 15.9994 O_ONCV_PBE_sr.upf

ATOMIC_POSITIONS crystal 
   Na    0.33333333    0.66666667    0.025437    
   Na    0.66666666    0.33333333    0.525437    
   O    0.33333333    0.66666667    0.399418    
   O    0.66666666    0.33333333    0.899418    
K_POINTS automatic 
10  10  6    0  0  0  
