&CONTROL 
   calculation = 'vc-relax'
   restart_mode = 'from_scratch' 
   prefix = 'BC' 
   tstress = .true. 
   tprnfor = .true. 
   pseudo_dir = './pseudo' 
   outdir = './output' 
   forc_conv_thr = 0.001
   etot_conv_thr = 1e-05
&end 
&SYSTEM 
   ibrav = 7 
   nat = 4 
   ntyp = 2 
   celldm(1) = 7.0421336829076955 
   celldm(3) = 2.3699115214415563 
   ecutwfc = 80 
   occupations = 'smearing' 
   smearing = 'marzari-vanderbilt' 
   degauss = 0.02 
&end 
&ELECTRONS 
   conv_thr =  1e-07 
   mixing_beta = 0.7 
&end 
&IONS 
   ion_dynamics = 'bfgs' 
&end 
&CELL 
   cell_dynamics = 'bfgs' 
   cell_dofree = 'ibrav' 
   press = 500.0 
&end 

ATOMIC_SPECIES 
Mg 24.305 Mg_ONCV_PBE_sr.upf
N 14.0067 N_ONCV_PBE_sr.upf

ATOMIC_POSITIONS crystal 
   Mg    -0.5    0.75    0.25    
   Mg    -0.5    1.25    0.75    
   N    0.0    0.104761    0.104761    
   N    0.0    0.895239    0.895239    
K_POINTS automatic 
9  9  4    0  0  0  
