&CONTROL 
   calculation = 'vc-relax'
   restart_mode = 'from_scratch' 
   prefix = 'MgO' 
   tstress = .true. 
   tprnfor = .true. 
   pseudo_dir = './pseudo' 
   outdir = './output' 
   forc_conv_thr = 0.001
   etot_conv_thr = 1e-05
&end 
&SYSTEM 
   ibrav = 2 
   nat = 2 
   ntyp = 2 
   celldm(1) = 8.187584649657333 
   ecutwfc = 80 
   occupations = 'smearing' 
   smearing = 'marzari-vanderbilt' 
   degauss = 0.02 
&end 
&ELECTRONS 
   conv_thr =  1e-07 
   mixing_beta = 0.7 
&end 
&IONS 
   ion_dynamics = 'bfgs' 
&end 
&CELL 
   cell_dynamics = 'bfgs' 
   cell_dofree = 'ibrav' 
   press = 500.0 
&end 

ATOMIC_SPECIES 
B 10.811 B_ONCV_PBE_sr.upf
Li 6.941 Li_ONCV_PBE_sr.upf

ATOMIC_POSITIONS crystal 
   B    0.5    0.5    -0.5    
   Li    0.0    0.0    0.0    
K_POINTS automatic 
6  6  6    0  0  0  
