&CONTROL 
   calculation = 'vc-relax'
   restart_mode = 'from_scratch' 
   prefix = 'Al4Cl' 
   tstress = .true. 
   tprnfor = .true. 
   pseudo_dir = '../pseudo' 
   outdir = './output' 
   forc_conv_thr = 0.001
   etot_conv_thr = 0.0001
&end 
&SYSTEM 
   ibrav = 6 
   nat = 10 
   ntyp = 2 
   celldm(1) = 5.087190427518484 
   celldm(3) = 6.272284558046285 
   ecutwfc = 80 
   occupations = 'smearing' 
   smearing = 'marzari-vanderbilt' 
   degauss = 0.02 
&end 
&ELECTRONS 
   conv_thr =  1e-08 
   mixing_beta = 0.7 
   electron_maxstep =100
&end 
&IONS 
   ion_dynamics = 'bfgs' 
   upscale = 100.0
   trust_radius_max = 0.8
&end 
&CELL 
   cell_dynamics = 'bfgs' 
   cell_dofree = 'ibrav' 
   cell_factor = 4.0 
   press_conv_thr = 1.0 
   press = 500.0 
&end 

ATOMIC_SPECIES 
   Al   26.9815386    Al_ONCV_PBE_sr.upf 
   Cl   35.453    Cl_ONCV_PBE_sr.upf 

ATOMIC_POSITIONS crystal 
   Al    0.0    0.5    0.1504375    
   Al    0.5    0.0    0.8495625    
   Al    0.0    0.5    0.3497445    
   Al    0.5    0.0    0.6502555    
   Al    0.0    0.5    0.7504825    
   Al    0.5    0.0    0.24951749999999995    
   Al    0.0    0.5    0.9509075    
   Al    0.5    0.0    0.04909249999999998    
   Cl    0.0    0.5    0.5620355    
   Cl    0.5    0.0    0.4379645    
K_POINTS automatic 
9  9  1    0  0  0  
