&CONTROL 
   calculation = 'vc-relax'
   restart_mode = 'from_scratch' 
   prefix = 'Al4F' 
   tstress = .true. 
   tprnfor = .true. 
   pseudo_dir = '../pseudo' 
   outdir = './output' 
   forc_conv_thr = 0.001
   etot_conv_thr = 0.0001
&end 
&SYSTEM 
   ibrav = 5 
   nat = 5 
   ntyp = 2 
   celldm(1) = 19.02613002609149 
   celldm(4) = 0.9682051599808291 
   ecutwfc = 80 
   occupations = 'smearing' 
   smearing = 'marzari-vanderbilt' 
   degauss = 0.02 
&end 
&ELECTRONS 
   conv_thr =  1e-08 
   mixing_beta = 0.7 
   electron_maxstep =100
&end 
&IONS 
   ion_dynamics = 'bfgs' 
   upscale = 100.0
   trust_radius_max = 0.8
&end 
&CELL 
   cell_dynamics = 'bfgs' 
   cell_dofree = 'ibrav' 
   cell_factor = 4.0 
   press_conv_thr = 1.0 
   press = 500.0 
&end 

ATOMIC_SPECIES 
   Al   26.9815386    Al_ONCV_PBE_sr.upf 
   F   18.9984032    F_ONCV_PBE_sr.upf 

ATOMIC_POSITIONS crystal 
   Al    0.027472999999999994    0.027472999999999994    0.027472999999999994    
   Al    0.5043193299999998    0.5043193299999998    0.5043193299999998    
   Al    0.7662479999999998    0.7662479999999998    0.7662479999999998    
   Al    0.9091569999999998    0.9091569999999998    0.9091569999999998    
   F    0.9684199999999997    0.9684199999999997    0.9684199999999997    
K_POINTS automatic 
2  2  2    0  0  0  
