&CONTROL 
   calculation = 'vc-relax'
   restart_mode = 'from_scratch' 
   prefix = 'Al4O' 
   tstress = .true. 
   tprnfor = .true. 
   pseudo_dir = '../pseudo' 
   outdir = './output' 
   forc_conv_thr = 0.001
   etot_conv_thr = 0.0001
&end 
&SYSTEM 
   ibrav = 4 
   nat = 10 
   ntyp = 2 
   celldm(1) = 4.909249279503253 
   celldm(3) = 7.006488849143739 
   ecutwfc = 80 
   occupations = 'smearing' 
   smearing = 'marzari-vanderbilt' 
   degauss = 0.02 
&end 
&ELECTRONS 
   conv_thr =  1e-08 
   mixing_beta = 0.7 
   electron_maxstep =100
&end 
&IONS 
   ion_dynamics = 'bfgs' 
   upscale = 100.0
   trust_radius_max = 0.8
&end 
&CELL 
   cell_dynamics = 'bfgs' 
   cell_dofree = 'ibrav' 
   cell_factor = 4.0 
   press_conv_thr = 1.0 
   press = 500.0 
&end 

ATOMIC_SPECIES 
   Al   26.9815386    Al_ONCV_PBE_sr.upf 
   O   15.9994    O_ONCV_PBE_sr.upf 

ATOMIC_POSITIONS crystal 
   Al    0.0    0.0    0.037235    
   Al    0.0    0.0    0.266076    
   Al    0.0    0.0    0.647738    
   Al    0.33333333    0.66666667    0.151587    
   Al    0.33333333    0.66666667    0.381864    
   Al    0.33333333    0.66666667    0.803793    
   Al    0.66666667    0.33333333    0.537795    
   Al    0.66666667    0.33333333    0.921506    
   O    0.33333333    0.66666667    0.483215    
   O    0.33333333    0.66666667    0.702221    
K_POINTS automatic 
10  10  1    0  0  0  
