&CONTROL 
   calculation = 'vc-relax'
   restart_mode = 'from_scratch' 
   prefix = 'Be4Al' 
   tstress = .true. 
   tprnfor = .true. 
   pseudo_dir = '../pseudo' 
   outdir = './output' 
   forc_conv_thr = 0.001
   etot_conv_thr = 0.0001
&end 
&SYSTEM 
   ibrav = 7 
   nat = 10 
   ntyp = 2 
   celldm(1) = 5.684662379952784 
   celldm(3) = 5.388395562031896 
   ecutwfc = 80 
   occupations = 'smearing' 
   smearing = 'marzari-vanderbilt' 
   degauss = 0.02 
&end 
&ELECTRONS 
   conv_thr =  1e-08 
   mixing_beta = 0.7 
   electron_maxstep =100
&end 
&IONS 
   ion_dynamics = 'bfgs' 
   upscale = 100.0
   trust_radius_max = 0.8
&end 
&CELL 
   cell_dynamics = 'bfgs' 
   cell_dofree = 'ibrav' 
   cell_factor = 4.0 
   press_conv_thr = 1.0 
   press = 500.0 
&end 

ATOMIC_SPECIES 
   Be   9.012182    Be_ONCV_PBE_sr.upf 
   Al   26.9815386    Al_ONCV_PBE_sr.upf 

ATOMIC_POSITIONS crystal 
   Be    -0.5    0.5842745    0.0842745    
   Be    -0.5    1.4157255    0.9157255    
   Be    0.5    0.0842745    -0.41572549999999997    
   Be    0.5    0.9157255    0.41572549999999997    
   Be    0.0    0.3376515    0.3376515    
   Be    0.0    0.6623485    0.6623485    
   Be    0.0    0.0    0.0    
   Be    0.0    0.5    0.5    
   Al    0.0    0.1998675    0.1998675    
   Al    0.0    0.8001325    0.8001325    
K_POINTS automatic 
8  8  2    0  0  0  
