&CONTROL 
   calculation = 'vc-relax'
   restart_mode = 'from_scratch' 
   prefix = 'Be4H' 
   tstress = .true. 
   tprnfor = .true. 
   pseudo_dir = '../pseudo' 
   outdir = './output' 
   forc_conv_thr = 0.001
   etot_conv_thr = 0.0001
&end 
&SYSTEM 
   ibrav = 7 
   nat = 5 
   ntyp = 2 
   celldm(1) = 9.53604916856837 
   celldm(3) = 0.4287081861507299 
   ecutwfc = 80 
   occupations = 'smearing' 
   smearing = 'marzari-vanderbilt' 
   degauss = 0.02 
&end 
&ELECTRONS 
   conv_thr =  1e-08 
   mixing_beta = 0.7 
   electron_maxstep =100
&end 
&IONS 
   ion_dynamics = 'bfgs' 
   upscale = 100.0
   trust_radius_max = 0.8
&end 
&CELL 
   cell_dynamics = 'bfgs' 
   cell_dofree = 'ibrav' 
   cell_factor = 4.0 
   press_conv_thr = 1.0 
   press = 500.0 
&end 

ATOMIC_SPECIES 
   Be   9.012182    Be_ONCV_PBE_sr.upf 
   H   1.00794    H_ONCV_PBE_sr.upf 

ATOMIC_POSITIONS crystal 
   Be    -0.192411    0.2772035    -0.0847925    
   Be    0.1924109999999999    0.7227965000000001    -0.9152075    
   Be    0.638004    0.0847925    -0.7227965000000001    
   Be    -0.638004    0.9152075    -0.2772035    
   H    0.0    0.0    0.0    
K_POINTS automatic 
5  5  12    0  0  0  
