&CONTROL 
   calculation = 'vc-relax'
   restart_mode = 'from_scratch' 
   prefix = 'Be4S' 
   tstress = .true. 
   tprnfor = .true. 
   pseudo_dir = '../pseudo' 
   outdir = './output' 
   forc_conv_thr = 0.001
   etot_conv_thr = 0.0001
&end 
&SYSTEM 
   ibrav = 4 
   nat = 10 
   ntyp = 2 
   celldm(1) = 5.905380502547694 
   celldm(3) = 3.099789245272398 
   ecutwfc = 80 
   occupations = 'smearing' 
   smearing = 'marzari-vanderbilt' 
   degauss = 0.02 
&end 
&ELECTRONS 
   conv_thr =  1e-08 
   mixing_beta = 0.7 
   electron_maxstep =100
&end 
&IONS 
   ion_dynamics = 'bfgs' 
   upscale = 100.0
   trust_radius_max = 0.8
&end 
&CELL 
   cell_dynamics = 'bfgs' 
   cell_dofree = 'ibrav' 
   cell_factor = 4.0 
   press_conv_thr = 1.0 
   press = 500.0 
&end 

ATOMIC_SPECIES 
   Be   9.012182    Be_ONCV_PBE_sr.upf 
   S   32.065    S_ONCV_PBE_sr.upf 

ATOMIC_POSITIONS crystal 
   Be    0.0    0.0    0.33792    
   Be    0.0    0.0    0.542728    
   Be    0.33333333    0.66666667    0.414213    
   Be    0.33333333    0.66666667    0.608778    
   Be    0.33333333    0.66666667    0.810058    
   Be    0.66666667    0.33333333    0.08813    
   Be    0.66666667    0.33333333    0.46917    
   Be    0.66666667    0.33333333    0.683453    
   S    0.0    0.0    0.145144    
   S    0.66666667    0.33333333    0.888954    
K_POINTS automatic 
8  8  3    0  0  0  
