&CONTROL 
   calculation = 'vc-relax'
   restart_mode = 'from_scratch' 
   prefix = 'BC4' 
   tstress = .true. 
   tprnfor = .true. 
   pseudo_dir = '../pseudo' 
   outdir = './output' 
   forc_conv_thr = 0.001
   etot_conv_thr = 0.0001
&end 
&SYSTEM 
   ibrav = 5 
   nat = 10 
   ntyp = 2 
   celldm(1) = 20.03083024894135 
   celldm(4) = 0.9735532766280671 
   ecutwfc = 80 
   occupations = 'smearing' 
   smearing = 'marzari-vanderbilt' 
   degauss = 0.02 
&end 
&ELECTRONS 
   conv_thr =  1e-08 
   mixing_beta = 0.7 
   electron_maxstep =100
&end 
&IONS 
   ion_dynamics = 'bfgs' 
   upscale = 100.0
   trust_radius_max = 0.8
&end 
&CELL 
   cell_dynamics = 'bfgs' 
   cell_dofree = 'ibrav' 
   cell_factor = 4.0 
   press_conv_thr = 1.0 
   press = 500.0 
&end 

ATOMIC_SPECIES 
   B   10.811    B_ONCV_PBE_sr.upf 
   C   12.0107    C_ONCV_PBE_sr.upf 

ATOMIC_POSITIONS crystal 
   B    0.18191417000000001    0.18191417000000001    0.18191417000000001    
   B    0.8180858300000002    0.8180858300000002    0.8180858300000002    
   C    0.023836500000000007    0.023836500000000007    0.023836500000000007    
   C    0.9761635000000002    0.9761635000000002    0.9761635000000002    
   C    0.23044683000000005    0.23044683000000005    0.23044683000000005    
   C    0.7695531700000002    0.7695531700000002    0.7695531700000002    
   C    0.37280783000000006    0.37280783000000006    0.37280783000000006    
   C    0.6271921700000002    0.6271921700000002    0.6271921700000002    
   C    0.4205001700000001    0.4205001700000001    0.4205001700000001    
   C    0.5794998300000002    0.5794998300000002    0.5794998300000002    
K_POINTS automatic 
2  2  2    0  0  0  
