&CONTROL 
   calculation = 'vc-relax'
   restart_mode = 'from_scratch' 
   prefix = 'C4F' 
   tstress = .true. 
   tprnfor = .true. 
   pseudo_dir = '../pseudo' 
   outdir = './output' 
   forc_conv_thr = 0.001
   etot_conv_thr = 0.0001
&end 
&SYSTEM 
   ibrav = 5 
   nat = 10 
   ntyp = 2 
   celldm(1) = 20.837872480563927 
   celldm(4) = 0.9755192132246271 
   ecutwfc = 80 
   occupations = 'smearing' 
   smearing = 'marzari-vanderbilt' 
   degauss = 0.02 
&end 
&ELECTRONS 
   conv_thr =  1e-08 
   mixing_beta = 0.7 
   electron_maxstep =100
&end 
&IONS 
   ion_dynamics = 'bfgs' 
   upscale = 100.0
   trust_radius_max = 0.8
&end 
&CELL 
   cell_dynamics = 'bfgs' 
   cell_dofree = 'ibrav' 
   cell_factor = 4.0 
   press_conv_thr = 1.0 
   press = 500.0 
&end 

ATOMIC_SPECIES 
   C   12.0107    C_ONCV_PBE_sr.upf 
   F   18.9984032    F_ONCV_PBE_sr.upf 

ATOMIC_POSITIONS crystal 
   C    0.02160933    0.02160933    0.02160933    
   C    0.97839067    0.97839067    0.97839067    
   C    0.235854    0.235854    0.235854    
   C    0.764146    0.764146    0.764146    
   C    0.37013567    0.37013567    0.37013567    
   C    0.62986433    0.62986433    0.62986433    
   C    0.41588767    0.41588767    0.41588767    
   C    0.58411233    0.58411233    0.58411233    
   F    0.195026    0.195026    0.195026    
   F    0.804974    0.804974    0.804974    
K_POINTS automatic 
2  2  2    0  0  0  
