&CONTROL 
   calculation = 'vc-relax'
   restart_mode = 'from_scratch' 
   prefix = 'SiCl4' 
   tstress = .true. 
   tprnfor = .true. 
   pseudo_dir = '../pseudo' 
   outdir = './output' 
   forc_conv_thr = 0.001
   etot_conv_thr = 0.0001
&end 
&SYSTEM 
   ibrav = 1 
   nat = 5 
   ntyp = 2 
   celldm(1) = 7.857347638003649 
   ecutwfc = 80 
   occupations = 'smearing' 
   smearing = 'marzari-vanderbilt' 
   degauss = 0.02 
&end 
&ELECTRONS 
   conv_thr =  1e-08 
   mixing_beta = 0.7 
   electron_maxstep =100
&end 
&IONS 
   ion_dynamics = 'bfgs' 
   upscale = 100.0
   trust_radius_max = 0.8
&end 
&CELL 
   cell_dynamics = 'bfgs' 
   cell_dofree = 'ibrav' 
   cell_factor = 4.0 
   press_conv_thr = 1.0 
   press = 500.0 
&end 

ATOMIC_SPECIES 
   Si   28.0855    Si_ONCV_PBE_sr.upf 
   Cl   35.453    Cl_ONCV_PBE_sr.upf 

ATOMIC_POSITIONS crystal 
   Si    0.5    0.5    0.5    
   Cl    0.231689    0.231689    0.768311    
   Cl    0.231689    0.768311    0.23168900000000003    
   Cl    0.768311    0.768311    0.768311    
   Cl    0.768311    0.231689    0.23168900000000003    
K_POINTS automatic 
6  6  6    0  0  0  
