&CONTROL 
   calculation = 'vc-relax'
   restart_mode = 'from_scratch' 
   prefix = 'MgC4' 
   tstress = .true. 
   tprnfor = .true. 
   pseudo_dir = '../pseudo' 
   outdir = './output' 
   forc_conv_thr = 0.001
   etot_conv_thr = 0.0001
&end 
&SYSTEM 
   ibrav = 5 
   nat = 5 
   ntyp = 2 
   celldm(1) = 11.31819808830037 
   celldm(4) = 0.9137304935733954 
   ecutwfc = 80 
   occupations = 'smearing' 
   smearing = 'marzari-vanderbilt' 
   degauss = 0.02 
&end 
&ELECTRONS 
   conv_thr =  1e-08 
   mixing_beta = 0.7 
   electron_maxstep =100
&end 
&IONS 
   ion_dynamics = 'bfgs' 
   upscale = 100.0
   trust_radius_max = 0.8
&end 
&CELL 
   cell_dynamics = 'bfgs' 
   cell_dofree = 'ibrav' 
   cell_factor = 4.0 
   press_conv_thr = 1.0 
   press = 500.0 
&end 

ATOMIC_SPECIES 
   Mg   24.305    Mg_ONCV_PBE_sr.upf 
   C   12.0107    C_ONCV_PBE_sr.upf 

ATOMIC_POSITIONS crystal 
   Mg    0.016708999999999998    0.016708999999999998    0.016708999999999998    
   C    0.14100182999999997    0.14100182999999997    0.14100182999999997    
   C    0.22880866999999996    0.22880866999999996    0.22880866999999996    
   C    0.44469616999999995    0.44469616999999995    0.44469616999999995    
   C    0.5909973299999999    0.5909973299999999    0.5909973299999999    
K_POINTS automatic 
4  4  4    0  0  0  
