&CONTROL 
   calculation = 'vc-relax'
   restart_mode = 'from_scratch' 
   prefix = 'C4S' 
   tstress = .true. 
   tprnfor = .true. 
   pseudo_dir = '../pseudo' 
   outdir = './output' 
   forc_conv_thr = 0.001
   etot_conv_thr = 0.0001
&end 
&SYSTEM 
   ibrav = 4 
   nat = 10 
   ntyp = 2 
   celldm(1) = 4.640248276267888 
   celldm(3) = 5.017151010479221 
   ecutwfc = 80 
   occupations = 'smearing' 
   smearing = 'marzari-vanderbilt' 
   degauss = 0.02 
&end 
&ELECTRONS 
   conv_thr =  1e-08 
   mixing_beta = 0.7 
   electron_maxstep =100
&end 
&IONS 
   ion_dynamics = 'bfgs' 
   upscale = 100.0
   trust_radius_max = 0.8
&end 
&CELL 
   cell_dynamics = 'bfgs' 
   cell_dofree = 'ibrav' 
   cell_factor = 4.0 
   press_conv_thr = 1.0 
   press = 500.0 
&end 

ATOMIC_SPECIES 
   C   12.0107    C_ONCV_PBE_sr.upf 
   S   32.065    S_ONCV_PBE_sr.upf 

ATOMIC_POSITIONS crystal 
   C    0.0    0.0    0.4390885    
   C    0.0    0.0    0.5609115    
   C    0.33333333    0.66666667    0.7626835    
   C    0.66666667    0.33333333    0.23731650000000004    
   C    0.33333333    0.66666667    0.2767895    
   C    0.66666667    0.33333333    0.7232105    
   C    0.33333333    0.66666667    0.3990125    
   C    0.66666667    0.33333333    0.6009875    
   S    0.33333333    0.66666667    0.9067445    
   S    0.66666667    0.33333333    0.09325550000000005    
K_POINTS automatic 
10  10  2    0  0  0  
