&CONTROL 
   calculation = 'vc-relax'
   restart_mode = 'from_scratch' 
   prefix = 'CF4' 
   tstress = .true. 
   tprnfor = .true. 
   pseudo_dir = '../pseudo' 
   outdir = './output' 
   forc_conv_thr = 0.001
   etot_conv_thr = 0.0001
&end 
&SYSTEM 
   ibrav = 6 
   nat = 10 
   ntyp = 2 
   celldm(1) = 8.592445037675278 
   celldm(3) = 0.735587661016033 
   ecutwfc = 80 
   occupations = 'smearing' 
   smearing = 'marzari-vanderbilt' 
   degauss = 0.02 
&end 
&ELECTRONS 
   conv_thr =  1e-08 
   mixing_beta = 0.7 
   electron_maxstep =100
&end 
&IONS 
   ion_dynamics = 'bfgs' 
   upscale = 100.0
   trust_radius_max = 0.8
&end 
&CELL 
   cell_dynamics = 'bfgs' 
   cell_dofree = 'ibrav' 
   cell_factor = 4.0 
   press_conv_thr = 1.0 
   press = 500.0 
&end 

ATOMIC_SPECIES 
   C   12.0107    C_ONCV_PBE_sr.upf 
   F   18.9984032    F_ONCV_PBE_sr.upf 

ATOMIC_POSITIONS crystal 
   C    0.0    0.0    0.5    
   C    0.5    0.5    0.0    
   F    0.0    0.2363695    0.7220835    
   F    0.2636305    0.5    0.2220835000000001    
   F    0.0    0.7636305    0.7220835    
   F    0.7363695    0.5    0.2220835000000001    
   F    0.5    0.2636305    0.7779165    
   F    0.7636305    0.0    0.2779165    
   F    0.5    0.7363695    0.7779165    
   F    0.2363695    0.0    0.2779165    
K_POINTS automatic 
6  6  8    0  0  0  
