&CONTROL 
   calculation = 'vc-relax'
   restart_mode = 'from_scratch' 
   prefix = 'SiF4' 
   tstress = .true. 
   tprnfor = .true. 
   pseudo_dir = '../pseudo' 
   outdir = './output' 
   forc_conv_thr = 0.001
   etot_conv_thr = 0.0001
&end 
&SYSTEM 
   ibrav = 7 
   nat = 5 
   ntyp = 2 
   celldm(1) = 6.569355432488847 
   celldm(3) = 1.8924538498486332 
   ecutwfc = 80 
   occupations = 'smearing' 
   smearing = 'marzari-vanderbilt' 
   degauss = 0.02 
&end 
&ELECTRONS 
   conv_thr =  1e-08 
   mixing_beta = 0.7 
   electron_maxstep =100
&end 
&IONS 
   ion_dynamics = 'bfgs' 
   upscale = 100.0
   trust_radius_max = 0.8
&end 
&CELL 
   cell_dynamics = 'bfgs' 
   cell_dofree = 'ibrav' 
   cell_factor = 4.0 
   press_conv_thr = 1.0 
   press = 500.0 
&end 

ATOMIC_SPECIES 
   Si   28.0855    Si_ONCV_PBE_sr.upf 
   F   18.9984032    F_ONCV_PBE_sr.upf 

ATOMIC_POSITIONS crystal 
   Si    0.0    0.5    0.5    
   F    0.0    1.11002275    0.63071625    
   F    -0.5206934999999999    0.8899772499999999    -0.11002275000000003    
   F    0.0    1.6307162499999999    0.11002275000000006    
   F    0.5206934999999999    0.36928375    -0.63071625    
K_POINTS automatic 
7  7  4    0  0  0  
