&CONTROL 
   calculation = 'vc-relax'
   restart_mode = 'from_scratch' 
   prefix = 'SiF4' 
   tstress = .true. 
   tprnfor = .true. 
   pseudo_dir = '../pseudo' 
   outdir = './output' 
   forc_conv_thr = 0.001
   etot_conv_thr = 0.0001
&end 
&SYSTEM 
   ibrav = 6 
   nat = 10 
   ntyp = 2 
   celldm(1) = 9.015598484885611 
   celldm(3) = 0.7313801305530249 
   ecutwfc = 80 
   occupations = 'smearing' 
   smearing = 'marzari-vanderbilt' 
   degauss = 0.02 
&end 
&ELECTRONS 
   conv_thr =  1e-08 
   mixing_beta = 0.7 
   electron_maxstep =100
&end 
&IONS 
   ion_dynamics = 'bfgs' 
   upscale = 100.0
   trust_radius_max = 0.8
&end 
&CELL 
   cell_dynamics = 'bfgs' 
   cell_dofree = 'ibrav' 
   cell_factor = 4.0 
   press_conv_thr = 1.0 
   press = 500.0 
&end 

ATOMIC_SPECIES 
   Si   28.0855    Si_ONCV_PBE_sr.upf 
   F   18.9984032    F_ONCV_PBE_sr.upf 

ATOMIC_POSITIONS crystal 
   Si    0.0    0.0    0.5    
   Si    0.5    0.5    0.0    
   F    0.0    0.2594895    0.234229    
   F    0.24051050000000002    0.5    0.734229    
   F    0.0    0.7405105000000001    0.234229    
   F    0.7594894999999999    0.5    0.734229    
   F    0.5    0.24051050000000002    0.265771    
   F    0.7405105000000001    0.0    0.765771    
   F    0.5    0.7594894999999999    0.265771    
   F    0.2594895    0.0    0.765771    
K_POINTS automatic 
5  5  7    0  0  0  
