&CONTROL 
   calculation = 'vc-relax'
   restart_mode = 'from_scratch' 
   prefix = 'H4C' 
   tstress = .true. 
   tprnfor = .true. 
   pseudo_dir = '../pseudo' 
   outdir = './output' 
   forc_conv_thr = 0.001
   etot_conv_thr = 0.0001
&end 
&SYSTEM 
   ibrav = 6 
   nat = 10 
   ntyp = 2 
   celldm(1) = 6.745984241293835 
   celldm(3) = 0.8161156204267053 
   ecutwfc = 80 
   occupations = 'smearing' 
   smearing = 'marzari-vanderbilt' 
   degauss = 0.02 
&end 
&ELECTRONS 
   conv_thr =  1e-08 
   mixing_beta = 0.7 
   electron_maxstep =100
&end 
&IONS 
   ion_dynamics = 'bfgs' 
   upscale = 100.0
   trust_radius_max = 0.8
&end 
&CELL 
   cell_dynamics = 'bfgs' 
   cell_dofree = 'ibrav' 
   cell_factor = 4.0 
   press_conv_thr = 1.0 
   press = 500.0 
&end 

ATOMIC_SPECIES 
   H   1.00794    H_ONCV_PBE_sr.upf 
   C   12.0107    C_ONCV_PBE_sr.upf 

ATOMIC_POSITIONS crystal 
   H    0.0    0.243673    0.794557    
   H    0.25632699999999997    0.5    0.29455699999999996    
   H    0.0    0.756327    0.794557    
   H    0.743673    0.5    0.29455699999999996    
   H    0.5    0.25632699999999997    0.705443    
   H    0.756327    0.0    0.20544300000000004    
   H    0.5    0.743673    0.705443    
   H    0.243673    0.0    0.20544300000000004    
   C    0.0    0.0    0.0    
   C    0.5    0.5    0.5    
K_POINTS automatic 
7  7  9    0  0  0  
