&CONTROL 
   calculation = 'vc-relax'
   restart_mode = 'from_scratch' 
   prefix = 'H4C' 
   tstress = .true. 
   tprnfor = .true. 
   pseudo_dir = '../pseudo' 
   outdir = './output' 
   forc_conv_thr = 0.001
   etot_conv_thr = 0.0001
&end 
&SYSTEM 
   ibrav = 5 
   nat = 5 
   ntyp = 2 
   celldm(1) = 5.433519690704844 
   celldm(4) = -0.3220613870881307 
   ecutwfc = 80 
   occupations = 'smearing' 
   smearing = 'marzari-vanderbilt' 
   degauss = 0.02 
&end 
&ELECTRONS 
   conv_thr =  1e-08 
   mixing_beta = 0.7 
   electron_maxstep =100
&end 
&IONS 
   ion_dynamics = 'bfgs' 
   upscale = 100.0
   trust_radius_max = 0.8
&end 
&CELL 
   cell_dynamics = 'bfgs' 
   cell_dofree = 'ibrav' 
   cell_factor = 4.0 
   press_conv_thr = 1.0 
   press = 500.0 
&end 

ATOMIC_SPECIES 
   H   1.00794    H_ONCV_PBE_sr.upf 
   C   12.0107    C_ONCV_PBE_sr.upf 

ATOMIC_POSITIONS crystal 
   H    1.3322019900000004    0.3322020000000001    0.9612840000000002    
   H    0.9612840000000004    0.33220199000000006    1.332202    
   H    1.3322020000000006    -0.038716000000000084    1.3322019900000002    
   H    0.7344736700000001    0.7344736700000001    0.7344736700000001    
   C    0.09393000000000003    0.09393000000000003    0.09393000000000003    
K_POINTS automatic 
9  9  9    0  0  0  
