&CONTROL 
   calculation = 'vc-relax'
   restart_mode = 'from_scratch' 
   prefix = 'H4O' 
   tstress = .true. 
   tprnfor = .true. 
   pseudo_dir = '../pseudo' 
   outdir = './output' 
   forc_conv_thr = 0.001
   etot_conv_thr = 0.0001
&end 
&SYSTEM 
   ibrav = 7 
   nat = 10 
   ntyp = 2 
   celldm(1) = 6.596023190984345 
   celldm(3) = 1.7172481487667859 
   ecutwfc = 80 
   occupations = 'smearing' 
   smearing = 'marzari-vanderbilt' 
   degauss = 0.02 
&end 
&ELECTRONS 
   conv_thr =  1e-08 
   mixing_beta = 0.7 
   electron_maxstep =100
&end 
&IONS 
   ion_dynamics = 'bfgs' 
   upscale = 100.0
   trust_radius_max = 0.8
&end 
&CELL 
   cell_dynamics = 'bfgs' 
   cell_dofree = 'ibrav' 
   cell_factor = 4.0 
   press_conv_thr = 1.0 
   press = 500.0 
&end 

ATOMIC_SPECIES 
   H   1.00794    H_ONCV_PBE_sr.upf 
   O   15.9994    O_ONCV_PBE_sr.upf 

ATOMIC_POSITIONS crystal 
   H    0.0    0.062165    0.062165    
   H    -0.5    0.812165    0.312165    
   H    -0.5    0.687835    0.187835    
   H    0.0    0.937835    0.937835    
   H    -0.25    0.875    0.625    
   H    0.25    1.375    0.125    
   H    0.25    0.375    -0.375    
   H    0.75    0.375    -0.375    
   O    0.0    0.5    0.5    
   O    -0.5    1.25    0.75    
K_POINTS automatic 
7  7  4    0  0  0  
