&CONTROL 
   calculation = 'vc-relax'
   restart_mode = 'from_scratch' 
   prefix = 'Li4Al' 
   tstress = .true. 
   tprnfor = .true. 
   pseudo_dir = '../pseudo' 
   outdir = './output' 
   forc_conv_thr = 0.001
   etot_conv_thr = 0.0001
&end 
&SYSTEM 
   ibrav = 7 
   nat = 5 
   ntyp = 2 
   celldm(1) = 9.6632392079492 
   celldm(3) = 0.675725032939098 
   ecutwfc = 80 
   occupations = 'smearing' 
   smearing = 'marzari-vanderbilt' 
   degauss = 0.02 
&end 
&ELECTRONS 
   conv_thr =  1e-08 
   mixing_beta = 0.7 
   electron_maxstep =100
&end 
&IONS 
   ion_dynamics = 'bfgs' 
   upscale = 100.0
   trust_radius_max = 0.8
&end 
&CELL 
   cell_dynamics = 'bfgs' 
   cell_dofree = 'ibrav' 
   cell_factor = 4.0 
   press_conv_thr = 1.0 
   press = 500.0 
&end 

ATOMIC_SPECIES 
   Li   6.941    Li_ONCV_PBE_sr.upf 
   Al   26.9815386    Al_ONCV_PBE_sr.upf 

ATOMIC_POSITIONS crystal 
   Li    -0.220507    0.799428    0.421079    
   Li    0.220507    1.200572    -0.421079    
   Li    0.621651    0.578921    -0.20057199999999997    
   Li    -0.621651    1.421079    0.20057199999999997    
   Al    0.0    0.0    0.0    
K_POINTS automatic 
5  5  7    0  0  0  
