&CONTROL 
   calculation = 'vc-relax'
   restart_mode = 'from_scratch' 
   prefix = 'Li4H' 
   tstress = .true. 
   tprnfor = .true. 
   pseudo_dir = '../pseudo' 
   outdir = './output' 
   forc_conv_thr = 0.001
   etot_conv_thr = 0.0001
&end 
&SYSTEM 
   ibrav = 4 
   nat = 5 
   ntyp = 2 
   celldm(1) = 4.306821633669029 
   celldm(3) = 3.3949836684613524 
   ecutwfc = 80 
   occupations = 'smearing' 
   smearing = 'marzari-vanderbilt' 
   degauss = 0.02 
&end 
&ELECTRONS 
   conv_thr =  1e-08 
   mixing_beta = 0.7 
   electron_maxstep =100
&end 
&IONS 
   ion_dynamics = 'bfgs' 
   upscale = 100.0
   trust_radius_max = 0.8
&end 
&CELL 
   cell_dynamics = 'bfgs' 
   cell_dofree = 'ibrav' 
   cell_factor = 4.0 
   press_conv_thr = 1.0 
   press = 500.0 
&end 

ATOMIC_SPECIES 
   Li   6.941    Li_ONCV_PBE_sr.upf 
   H   1.00794    H_ONCV_PBE_sr.upf 

ATOMIC_POSITIONS crystal 
   Li    0.0    0.0    0.128549    
   Li    0.0    0.0    0.627203    
   Li    0.33333333    0.66666667    0.37894    
   Li    0.66666667    0.33333333    0.878062    
   H    0.33333333    0.66666667    0.003447    
K_POINTS automatic 
11  11  3    0  0  0  
