&CONTROL 
   calculation = 'vc-relax'
   restart_mode = 'from_scratch' 
   prefix = 'Li4N' 
   tstress = .true. 
   tprnfor = .true. 
   pseudo_dir = '../pseudo' 
   outdir = './output' 
   forc_conv_thr = 0.001
   etot_conv_thr = 0.0001
&end 
&SYSTEM 
   ibrav = 5 
   nat = 10 
   ntyp = 2 
   celldm(1) = 14.745165378812715 
   celldm(4) = 0.9192410908332612 
   ecutwfc = 80 
   occupations = 'smearing' 
   smearing = 'marzari-vanderbilt' 
   degauss = 0.02 
&end 
&ELECTRONS 
   conv_thr =  1e-08 
   mixing_beta = 0.7 
   electron_maxstep =100
&end 
&IONS 
   ion_dynamics = 'bfgs' 
   upscale = 100.0
   trust_radius_max = 0.8
&end 
&CELL 
   cell_dynamics = 'bfgs' 
   cell_dofree = 'ibrav' 
   cell_factor = 4.0 
   press_conv_thr = 1.0 
   press = 500.0 
&end 

ATOMIC_SPECIES 
   Li   6.941    Li_ONCV_PBE_sr.upf 
   N   14.0067    N_ONCV_PBE_sr.upf 

ATOMIC_POSITIONS crystal 
   Li    0.06542532999999999    0.06542532999999999    0.06542532999999999    
   Li    0.9345746699999997    0.9345746699999997    0.9345746699999997    
   Li    0.18991866999999996    0.18991866999999996    0.18991866999999996    
   Li    0.8100813299999998    0.8100813299999998    0.8100813299999998    
   Li    0.35513432999999994    0.35513432999999994    0.35513432999999994    
   Li    0.6448656699999998    0.6448656699999998    0.6448656699999998    
   Li    0.4331893299999999    0.4331893299999999    0.4331893299999999    
   Li    0.5668106699999998    0.5668106699999998    0.5668106699999998    
   N    0.27423299999999995    0.27423299999999995    0.27423299999999995    
   N    0.7257669999999999    0.7257669999999999    0.7257669999999999    
K_POINTS automatic 
3  3  3    0  0  0  
