&CONTROL 
   calculation = 'vc-relax'
   restart_mode = 'from_scratch' 
   prefix = 'Li4O' 
   tstress = .true. 
   tprnfor = .true. 
   pseudo_dir = '../pseudo' 
   outdir = './output' 
   forc_conv_thr = 0.001
   etot_conv_thr = 0.0001
&end 
&SYSTEM 
   ibrav = 7 
   nat = 10 
   ntyp = 2 
   celldm(1) = 7.769790711424261 
   celldm(3) = 1.9772770290747617 
   ecutwfc = 80 
   occupations = 'smearing' 
   smearing = 'marzari-vanderbilt' 
   degauss = 0.02 
&end 
&ELECTRONS 
   conv_thr =  1e-08 
   mixing_beta = 0.7 
   electron_maxstep =100
&end 
&IONS 
   ion_dynamics = 'bfgs' 
   upscale = 100.0
   trust_radius_max = 0.8
&end 
&CELL 
   cell_dynamics = 'bfgs' 
   cell_dofree = 'ibrav' 
   cell_factor = 4.0 
   press_conv_thr = 1.0 
   press = 500.0 
&end 

ATOMIC_SPECIES 
   Li   6.941    Li_ONCV_PBE_sr.upf 
   O   15.9994    O_ONCV_PBE_sr.upf 

ATOMIC_POSITIONS crystal 
   Li    -0.05504399999999998    0.5578099999999999    0.16283399999999998    
   Li    0.105024    1.252766    -0.19219000000000008    
   Li    0.05504399999999998    1.10779    0.502766    
   Li    -0.105024    0.9128339999999999    -0.64221    
   Li    0.5550439999999999    1.19219    0.08716600000000008    
   Li    -0.605024    1.497234    0.44219    
   Li    0.4449560000000001    0.64221    -0.25276600000000005    
   Li    -0.39497600000000005    0.8371660000000001    -0.10779    
   O    0.0    0.5    0.5    
   O    -0.5    1.25    0.75    
K_POINTS automatic 
6  6  3    0  0  0  
