&CONTROL 
   calculation = 'vc-relax'
   restart_mode = 'from_scratch' 
   prefix = 'Li4P' 
   tstress = .true. 
   tprnfor = .true. 
   pseudo_dir = '../pseudo' 
   outdir = './output' 
   forc_conv_thr = 0.001
   etot_conv_thr = 0.0001
&end 
&SYSTEM 
   ibrav = 5 
   nat = 10 
   ntyp = 2 
   celldm(1) = 14.549059834991521 
   celldm(4) = 0.8925708136208781 
   ecutwfc = 80 
   occupations = 'smearing' 
   smearing = 'marzari-vanderbilt' 
   degauss = 0.02 
&end 
&ELECTRONS 
   conv_thr =  1e-08 
   mixing_beta = 0.7 
   electron_maxstep =100
&end 
&IONS 
   ion_dynamics = 'bfgs' 
   upscale = 100.0
   trust_radius_max = 0.8
&end 
&CELL 
   cell_dynamics = 'bfgs' 
   cell_dofree = 'ibrav' 
   cell_factor = 4.0 
   press_conv_thr = 1.0 
   press = 500.0 
&end 

ATOMIC_SPECIES 
   Li   6.941    Li_ONCV_PBE_sr.upf 
   P   30.973762    P_ONCV_PBE_sr.upf 

ATOMIC_POSITIONS crystal 
   Li    0.19886267    0.19886267    0.19886267    
   Li    0.80113733    0.80113733    0.80113733    
   Li    0.28981233    0.28981233    0.28981233    
   Li    0.71018767    0.71018767    0.71018767    
   Li    0.397812    0.397812    0.397812    
   Li    0.602188    0.602188    0.602188    
   Li    0.5    0.5    0.5    
   Li    0.0    0.0    0.0    
   P    0.100547    0.100547    0.100547    
   P    0.8994530000000001    0.8994530000000001    0.8994530000000001    
K_POINTS automatic 
3  3  3    0  0  0  
