&CONTROL 
   calculation = 'vc-relax'
   restart_mode = 'from_scratch' 
   prefix = 'Li4Si' 
   tstress = .true. 
   tprnfor = .true. 
   pseudo_dir = '../pseudo' 
   outdir = './output' 
   forc_conv_thr = 0.001
   etot_conv_thr = 0.0001
&end 
&SYSTEM 
   ibrav = 5 
   nat = 5 
   ntyp = 2 
   celldm(1) = 7.854671342870601 
   celldm(4) = 0.6040890961776024 
   ecutwfc = 80 
   occupations = 'smearing' 
   smearing = 'marzari-vanderbilt' 
   degauss = 0.02 
&end 
&ELECTRONS 
   conv_thr =  1e-08 
   mixing_beta = 0.7 
   electron_maxstep =100
&end 
&IONS 
   ion_dynamics = 'bfgs' 
   upscale = 100.0
   trust_radius_max = 0.8
&end 
&CELL 
   cell_dynamics = 'bfgs' 
   cell_dofree = 'ibrav' 
   cell_factor = 4.0 
   press_conv_thr = 1.0 
   press = 500.0 
&end 

ATOMIC_SPECIES 
   Li   6.941    Li_ONCV_PBE_sr.upf 
   Si   28.0855    Si_ONCV_PBE_sr.upf 

ATOMIC_POSITIONS crystal 
   Li    0.21888333000000004    0.21888333000000004    0.21888333000000004    
   Li    0.7811166700000003    0.7811166700000003    0.7811166700000003    
   Li    0.4004320000000001    0.4004320000000001    0.4004320000000001    
   Li    0.5995680000000001    0.5995680000000001    0.5995680000000001    
   Si    0.0    0.0    0.0    
K_POINTS automatic 
6  6  6    0  0  0  
