&CONTROL 
   calculation = 'vc-relax'
   restart_mode = 'from_scratch' 
   prefix = 'Na4C' 
   tstress = .true. 
   tprnfor = .true. 
   pseudo_dir = '../pseudo' 
   outdir = './output' 
   forc_conv_thr = 0.001
   etot_conv_thr = 0.0001
&end 
&SYSTEM 
   ibrav = 7 
   nat = 5 
   ntyp = 2 
   celldm(1) = 9.90855058548545 
   celldm(3) = 0.7263098201210756 
   ecutwfc = 80 
   occupations = 'smearing' 
   smearing = 'marzari-vanderbilt' 
   degauss = 0.02 
&end 
&ELECTRONS 
   conv_thr =  1e-08 
   mixing_beta = 0.7 
   electron_maxstep =100
&end 
&IONS 
   ion_dynamics = 'bfgs' 
   upscale = 100.0
   trust_radius_max = 0.8
&end 
&CELL 
   cell_dynamics = 'bfgs' 
   cell_dofree = 'ibrav' 
   cell_factor = 4.0 
   press_conv_thr = 1.0 
   press = 500.0 
&end 

ATOMIC_SPECIES 
   Na   22.98976928    Na_ONCV_PBE_sr.upf 
   C   12.0107    C_ONCV_PBE_sr.upf 

ATOMIC_POSITIONS crystal 
   Na    -0.172356    0.2818445    -0.1094885    
   Na    0.17235600000000006    0.7181555    -0.8905115    
   Na    0.608667    0.1094885    -0.7181555    
   Na    -0.6086670000000001    0.8905115    -0.2818445    
   C    0.0    0.5    0.5    
K_POINTS automatic 
5  5  7    0  0  0  
