&CONTROL 
   calculation = 'vc-relax'
   restart_mode = 'from_scratch' 
   prefix = 'Na4N' 
   tstress = .true. 
   tprnfor = .true. 
   pseudo_dir = '../pseudo' 
   outdir = './output' 
   forc_conv_thr = 0.001
   etot_conv_thr = 0.0001
&end 
&SYSTEM 
   ibrav = 7 
   nat = 5 
   ntyp = 2 
   celldm(1) = 9.277923728200376 
   celldm(3) = 0.9567986764264024 
   ecutwfc = 80 
   occupations = 'smearing' 
   smearing = 'marzari-vanderbilt' 
   degauss = 0.02 
&end 
&ELECTRONS 
   conv_thr =  1e-08 
   mixing_beta = 0.7 
   electron_maxstep =100
&end 
&IONS 
   ion_dynamics = 'bfgs' 
   upscale = 100.0
   trust_radius_max = 0.8
&end 
&CELL 
   cell_dynamics = 'bfgs' 
   cell_dofree = 'ibrav' 
   cell_factor = 4.0 
   press_conv_thr = 1.0 
   press = 500.0 
&end 

ATOMIC_SPECIES 
   Na   22.98976928    Na_ONCV_PBE_sr.upf 
   N   14.0067    N_ONCV_PBE_sr.upf 

ATOMIC_POSITIONS crystal 
   Na    -0.13852699999999998    1.0692635    0.5692635    
   Na    0.5000000000000001    0.9307365    0.06926349999999992    
   Na    0.13852699999999996    1.4307365    -0.06926350000000003    
   Na    -0.5    1.5692635    0.4307365    
   N    0.0    0.0    0.0    
K_POINTS automatic 
5  5  5    0  0  0  
