&CONTROL 
   calculation = 'vc-relax'
   restart_mode = 'from_scratch' 
   prefix = 'Na4S' 
   tstress = .true. 
   tprnfor = .true. 
   pseudo_dir = '../pseudo' 
   outdir = './output' 
   forc_conv_thr = 0.001
   etot_conv_thr = 0.0001
&end 
&SYSTEM 
   ibrav = 4 
   nat = 10 
   ntyp = 2 
   celldm(1) = 7.505015343691903 
   celldm(3) = 2.407416829300496 
   ecutwfc = 80 
   occupations = 'smearing' 
   smearing = 'marzari-vanderbilt' 
   degauss = 0.02 
&end 
&ELECTRONS 
   conv_thr =  1e-08 
   mixing_beta = 0.7 
   electron_maxstep =100
&end 
&IONS 
   ion_dynamics = 'bfgs' 
   upscale = 100.0
   trust_radius_max = 0.8
&end 
&CELL 
   cell_dynamics = 'bfgs' 
   cell_dofree = 'ibrav' 
   cell_factor = 4.0 
   press_conv_thr = 1.0 
   press = 500.0 
&end 

ATOMIC_SPECIES 
   Na   22.98976928    Na_ONCV_PBE_sr.upf 
   S   32.065    S_ONCV_PBE_sr.upf 

ATOMIC_POSITIONS crystal 
   Na    0.33333333    0.66666667    0.109344    
   Na    0.66666667    0.33333333    0.890656    
   Na    0.66666666    0.33333333    0.609344    
   Na    0.33333334000000003    0.66666667    0.390656    
   Na    0.0    0.0    0.0    
   Na    0.0    0.0    0.5    
   Na    0.33333333    0.66666667    0.75    
   Na    0.66666667    0.33333333    0.25    
   S    0.0    0.0    0.25    
   S    0.0    0.0    0.75    
K_POINTS automatic 
6  6  3    0  0  0  
