&CONTROL 
   calculation = 'vc-relax'
   restart_mode = 'from_scratch' 
   prefix = 'O4F' 
   tstress = .true. 
   tprnfor = .true. 
   pseudo_dir = '../pseudo' 
   outdir = './output' 
   forc_conv_thr = 0.001
   etot_conv_thr = 0.0001
&end 
&SYSTEM 
   ibrav = 4 
   nat = 5 
   ntyp = 2 
   celldm(1) = 6.706440871586443 
   celldm(3) = 0.9383820402316365 
   ecutwfc = 80 
   occupations = 'smearing' 
   smearing = 'marzari-vanderbilt' 
   degauss = 0.02 
&end 
&ELECTRONS 
   conv_thr =  1e-08 
   mixing_beta = 0.7 
   electron_maxstep =100
&end 
&IONS 
   ion_dynamics = 'bfgs' 
   upscale = 100.0
   trust_radius_max = 0.8
&end 
&CELL 
   cell_dynamics = 'bfgs' 
   cell_dofree = 'ibrav' 
   cell_factor = 4.0 
   press_conv_thr = 1.0 
   press = 500.0 
&end 

ATOMIC_SPECIES 
   O   15.9994    O_ONCV_PBE_sr.upf 
   F   18.9984032    F_ONCV_PBE_sr.upf 

ATOMIC_POSITIONS crystal 
   O    0.33333333    0.66666667    0.174391    
   O    0.66666667    0.33333333    0.825609    
   O    0.66666666    0.33333333    0.174391    
   O    0.33333334000000003    0.66666667    0.825609    
   F    0.0    0.0    0.5    
K_POINTS automatic 
7  7  8    0  0  0  
