&CONTROL 
   calculation = 'vc-relax'
   restart_mode = 'from_scratch' 
   prefix = 'LiO4' 
   tstress = .true. 
   tprnfor = .true. 
   pseudo_dir = '../pseudo' 
   outdir = './output' 
   forc_conv_thr = 0.001
   etot_conv_thr = 0.0001
&end 
&SYSTEM 
   ibrav = 7 
   nat = 10 
   ntyp = 2 
   celldm(1) = 8.292354770327732 
   celldm(3) = 1.5171033396802736 
   ecutwfc = 80 
   occupations = 'smearing' 
   smearing = 'marzari-vanderbilt' 
   degauss = 0.02 
&end 
&ELECTRONS 
   conv_thr =  1e-08 
   mixing_beta = 0.7 
   electron_maxstep =100
&end 
&IONS 
   ion_dynamics = 'bfgs' 
   upscale = 100.0
   trust_radius_max = 0.8
&end 
&CELL 
   cell_dynamics = 'bfgs' 
   cell_dofree = 'ibrav' 
   cell_factor = 4.0 
   press_conv_thr = 1.0 
   press = 500.0 
&end 

ATOMIC_SPECIES 
   Li   6.941    Li_ONCV_PBE_sr.upf 
   O   15.9994    O_ONCV_PBE_sr.upf 

ATOMIC_POSITIONS crystal 
   Li    0.0    0.25    0.25    
   Li    0.0    0.75    0.75    
   O    -0.16046700000000003    0.7373135    0.2373135    
   O    0.16046700000000014    1.2626865    -0.23731350000000007    
   O    0.49999999999999994    0.5768465    -0.26268649999999993    
   O    -0.5    1.4231535000000002    0.2626865    
   O    0.16046700000000014    1.0768464999999998    -0.42315350000000007    
   O    -0.16046700000000003    0.9231535    0.4231535    
   O    -0.5    1.2373135    0.07684649999999998    
   O    0.49999999999999994    0.7626865    -0.07684649999999993    
K_POINTS automatic 
6  6  4    0  0  0  
