&CONTROL 
   calculation = 'vc-relax'
   restart_mode = 'from_scratch' 
   prefix = 'MgO4' 
   tstress = .true. 
   tprnfor = .true. 
   pseudo_dir = '../pseudo' 
   outdir = './output' 
   forc_conv_thr = 0.001
   etot_conv_thr = 0.0001
&end 
&SYSTEM 
   ibrav = 7 
   nat = 10 
   ntyp = 2 
   celldm(1) = 8.727889646468949 
   celldm(3) = 1.4491201758641907 
   ecutwfc = 80 
   occupations = 'smearing' 
   smearing = 'marzari-vanderbilt' 
   degauss = 0.02 
&end 
&ELECTRONS 
   conv_thr =  1e-08 
   mixing_beta = 0.7 
   electron_maxstep =100
&end 
&IONS 
   ion_dynamics = 'bfgs' 
   upscale = 100.0
   trust_radius_max = 0.8
&end 
&CELL 
   cell_dynamics = 'bfgs' 
   cell_dofree = 'ibrav' 
   cell_factor = 4.0 
   press_conv_thr = 1.0 
   press = 500.0 
&end 

ATOMIC_SPECIES 
   Mg   24.305    Mg_ONCV_PBE_sr.upf 
   O   15.9994    O_ONCV_PBE_sr.upf 

ATOMIC_POSITIONS crystal 
   Mg    0.0    0.25    0.25    
   Mg    0.0    0.75    0.75    
   O    -0.184266    0.9373875    0.43738750000000004    
   O    0.18426600000000004    1.0626125    -0.43738750000000004    
   O    0.5    0.7531215    -0.06261249999999996    
   O    -0.5    1.2468785    0.06261249999999996    
   O    0.18426600000000004    1.2531215    -0.2468785    
   O    -0.184266    0.7468785    0.24687849999999997    
   O    -0.5    1.4373875    0.2531215    
   O    0.5    0.5626125    -0.2531215    
K_POINTS automatic 
5  5  4    0  0  0  
