&CONTROL 
   calculation = 'vc-relax'
   restart_mode = 'from_scratch' 
   prefix = 'NaP4' 
   tstress = .true. 
   tprnfor = .true. 
   pseudo_dir = '../pseudo' 
   outdir = './output' 
   forc_conv_thr = 0.001
   etot_conv_thr = 0.0001
&end 
&SYSTEM 
   ibrav = 5 
   nat = 5 
   ntyp = 2 
   celldm(1) = 13.815792967712998 
   celldm(4) = 0.9067838568247696 
   ecutwfc = 80 
   occupations = 'smearing' 
   smearing = 'marzari-vanderbilt' 
   degauss = 0.02 
&end 
&ELECTRONS 
   conv_thr =  1e-08 
   mixing_beta = 0.7 
   electron_maxstep =100
&end 
&IONS 
   ion_dynamics = 'bfgs' 
   upscale = 100.0
   trust_radius_max = 0.8
&end 
&CELL 
   cell_dynamics = 'bfgs' 
   cell_dofree = 'ibrav' 
   cell_factor = 4.0 
   press_conv_thr = 1.0 
   press = 500.0 
&end 

ATOMIC_SPECIES 
   Na   22.98976928    Na_ONCV_PBE_sr.upf 
   P   30.973762    P_ONCV_PBE_sr.upf 

ATOMIC_POSITIONS crystal 
   Na    0.0    0.0    0.0    
   P    0.13410700000000003    0.13410700000000003    0.13410700000000003    
   P    0.8658930000000002    0.8658930000000002    0.8658930000000002    
   P    0.4140320000000001    0.4140320000000001    0.4140320000000001    
   P    0.5859680000000002    0.5859680000000002    0.5859680000000002    
K_POINTS automatic 
3  3  3    0  0  0  
