&CONTROL 
   calculation = 'vc-relax'
   restart_mode = 'from_scratch' 
   prefix = 'MgS4' 
   tstress = .true. 
   tprnfor = .true. 
   pseudo_dir = '../pseudo' 
   outdir = './output' 
   forc_conv_thr = 0.001
   etot_conv_thr = 0.0001
&end 
&SYSTEM 
   ibrav = 7 
   nat = 10 
   ntyp = 2 
   celldm(1) = 10.577559197824032 
   celldm(3) = 1.4751250090834531 
   ecutwfc = 80 
   occupations = 'smearing' 
   smearing = 'marzari-vanderbilt' 
   degauss = 0.02 
&end 
&ELECTRONS 
   conv_thr =  1e-08 
   mixing_beta = 0.7 
   electron_maxstep =100
&end 
&IONS 
   ion_dynamics = 'bfgs' 
   upscale = 100.0
   trust_radius_max = 0.8
&end 
&CELL 
   cell_dynamics = 'bfgs' 
   cell_dofree = 'ibrav' 
   cell_factor = 4.0 
   press_conv_thr = 1.0 
   press = 500.0 
&end 

ATOMIC_SPECIES 
   Mg   24.305    Mg_ONCV_PBE_sr.upf 
   S   32.065    S_ONCV_PBE_sr.upf 

ATOMIC_POSITIONS crystal 
   Mg    0.0    0.25    0.25    
   Mg    0.0    0.75    0.75    
   S    -0.5    0.7733530000000001    -0.04284400000000001    
   S    0.5    1.2266469999999998    0.04284399999999999    
   S    0.18380299999999997    0.273353    -0.226647    
   S    -0.18380299999999994    1.7266469999999998    0.22664699999999993    
   S    0.5    0.45715599999999995    -0.7266469999999999    
   S    -0.5    1.542844    0.7266469999999999    
   S    -0.18380299999999994    0.957156    -0.542844    
   S    0.18380299999999997    1.0428439999999999    0.542844    
K_POINTS automatic 
4  4  3    0  0  0  
