&CONTROL 
   calculation = 'vc-relax'
   restart_mode = 'from_scratch' 
   prefix = 'AlB' 
   tstress = .true. 
   tprnfor = .true. 
   pseudo_dir = '../pseudo' 
   outdir = './output' 
   forc_conv_thr = 0.001
   etot_conv_thr = 0.0001
&end 
&SYSTEM 
   ibrav = 5 
   nat = 4 
   ntyp = 2 
   celldm(1) = 9.946382632190726 
   celldm(4) = 0.8586107017663518 
   ecutwfc = 80 
   occupations = 'smearing' 
   smearing = 'marzari-vanderbilt' 
   degauss = 0.02 
&end 
&ELECTRONS 
   conv_thr =  1e-08 
   mixing_beta = 0.7 
   electron_maxstep =100
&end 
&IONS 
   ion_dynamics = 'bfgs' 
   upscale = 100.0
   trust_radius_max = 0.8
&end 
&CELL 
   cell_dynamics = 'bfgs' 
   cell_dofree = 'ibrav' 
   cell_factor = 4.0 
   press_conv_thr = 1.0 
   press = 500.0 
&end 

ATOMIC_SPECIES 
   Al   26.9815386    Al_ONCV_PBE_sr.upf 
   B   10.811    B_ONCV_PBE_sr.upf 

ATOMIC_POSITIONS crystal 
   Al    0.39694700000000016    0.3969470000000001    0.39694700000000016    
   Al    0.6030530000000003    0.6030530000000002    0.6030530000000003    
   B    0.1622290000000001    0.16222900000000004    0.1622290000000001    
   B    0.8377710000000004    0.8377710000000003    0.8377710000000004    
K_POINTS automatic 
5  5  5    0  0  0  
