&CONTROL 
   calculation = 'vc-relax'
   restart_mode = 'from_scratch' 
   prefix = 'CCl' 
   tstress = .true. 
   tprnfor = .true. 
   pseudo_dir = '../pseudo' 
   outdir = './output' 
   forc_conv_thr = 0.001
   etot_conv_thr = 0.0001
&end 
&SYSTEM 
   ibrav = 5 
   nat = 4 
   ntyp = 2 
   celldm(1) = 14.697648089737697 
   celldm(4) = 0.9526502986569542 
   ecutwfc = 80 
   occupations = 'smearing' 
   smearing = 'marzari-vanderbilt' 
   degauss = 0.02 
&end 
&ELECTRONS 
   conv_thr =  1e-08 
   mixing_beta = 0.7 
   electron_maxstep =100
&end 
&IONS 
   ion_dynamics = 'bfgs' 
   upscale = 100.0
   trust_radius_max = 0.8
&end 
&CELL 
   cell_dynamics = 'bfgs' 
   cell_dofree = 'ibrav' 
   cell_factor = 4.0 
   press_conv_thr = 1.0 
   press = 500.0 
&end 

ATOMIC_SPECIES 
   C   12.0107    C_ONCV_PBE_sr.upf 
   Cl   35.453    Cl_ONCV_PBE_sr.upf 

ATOMIC_POSITIONS crystal 
   C    0.16786550000000003    0.16786550000000003    0.16786550000000003    
   C    0.8321345000000002    0.8321345000000002    0.8321345000000002    
   Cl    0.3885508300000001    0.3885508300000001    0.3885508300000001    
   Cl    0.6114491700000001    0.6114491700000001    0.6114491700000001    
K_POINTS automatic 
3  3  3    0  0  0  
