&CONTROL 
   calculation = 'vc-relax'
   restart_mode = 'from_scratch' 
   prefix = 'CF' 
   tstress = .true. 
   tprnfor = .true. 
   pseudo_dir = '../pseudo' 
   outdir = './output' 
   forc_conv_thr = 0.001
   etot_conv_thr = 0.0001
&end 
&SYSTEM 
   ibrav = 5 
   nat = 4 
   ntyp = 2 
   celldm(1) = 9.655153769355913 
   celldm(4) = 0.8861503030993284 
   ecutwfc = 80 
   occupations = 'smearing' 
   smearing = 'marzari-vanderbilt' 
   degauss = 0.02 
&end 
&ELECTRONS 
   conv_thr =  1e-08 
   mixing_beta = 0.7 
   electron_maxstep =100
&end 
&IONS 
   ion_dynamics = 'bfgs' 
   upscale = 100.0
   trust_radius_max = 0.8
&end 
&CELL 
   cell_dynamics = 'bfgs' 
   cell_dofree = 'ibrav' 
   cell_factor = 4.0 
   press_conv_thr = 1.0 
   press = 500.0 
&end 

ATOMIC_SPECIES 
   C   12.0107    C_ONCV_PBE_sr.upf 
   F   18.9984032    F_ONCV_PBE_sr.upf 

ATOMIC_POSITIONS crystal 
   C    0.316869    0.31686899999999996    0.316869    
   C    0.6831309999999999    0.6831309999999998    0.6831309999999999    
   F    0.22601967    0.22601966999999995    0.22601967    
   F    0.77398033    0.7739803299999998    0.77398033    
K_POINTS automatic 
5  5  5    0  0  0  
