&CONTROL 
   calculation = 'vc-relax'
   restart_mode = 'from_scratch' 
   prefix = 'PH' 
   tstress = .true. 
   tprnfor = .true. 
   pseudo_dir = '../pseudo' 
   outdir = './output' 
   forc_conv_thr = 0.001
   etot_conv_thr = 0.0001
&end 
&SYSTEM 
   ibrav = 6 
   nat = 4 
   ntyp = 2 
   celldm(1) = 5.818160155089835 
   celldm(3) = 1.0399431766094203 
   ecutwfc = 80 
   occupations = 'smearing' 
   smearing = 'marzari-vanderbilt' 
   degauss = 0.02 
&end 
&ELECTRONS 
   conv_thr =  1e-08 
   mixing_beta = 0.7 
   electron_maxstep =100
&end 
&IONS 
   ion_dynamics = 'bfgs' 
   upscale = 100.0
   trust_radius_max = 0.8
&end 
&CELL 
   cell_dynamics = 'bfgs' 
   cell_dofree = 'ibrav' 
   cell_factor = 4.0 
   press_conv_thr = 1.0 
   press = 500.0 
&end 

ATOMIC_SPECIES 
   P   30.973762    P_ONCV_PBE_sr.upf 
   H   1.00794    H_ONCV_PBE_sr.upf 

ATOMIC_POSITIONS crystal 
   P    0.0    0.5    0.968887    
   P    0.5    0.0    0.031112999999999946    
   H    0.0    0.5    0.510624    
   H    0.5    0.0    0.48937600000000003    
K_POINTS automatic 
8  8  8    0  0  0  
