&CONTROL 
   calculation = 'vc-relax'
   restart_mode = 'from_scratch' 
   prefix = 'LiN' 
   tstress = .true. 
   tprnfor = .true. 
   pseudo_dir = '../pseudo' 
   outdir = './output' 
   forc_conv_thr = 0.001
   etot_conv_thr = 0.0001
&end 
&SYSTEM 
   ibrav = 7 
   nat = 4 
   ntyp = 2 
   celldm(1) = 4.849105438303435 
   celldm(3) = 2.8090146963171305 
   ecutwfc = 80 
   occupations = 'smearing' 
   smearing = 'marzari-vanderbilt' 
   degauss = 0.02 
&end 
&ELECTRONS 
   conv_thr =  1e-08 
   mixing_beta = 0.7 
   electron_maxstep =100
&end 
&IONS 
   ion_dynamics = 'bfgs' 
   upscale = 100.0
   trust_radius_max = 0.8
&end 
&CELL 
   cell_dynamics = 'bfgs' 
   cell_dofree = 'ibrav' 
   cell_factor = 4.0 
   press_conv_thr = 1.0 
   press = 500.0 
&end 

ATOMIC_SPECIES 
   Li   6.941    Li_ONCV_PBE_sr.upf 
   N   14.0067    N_ONCV_PBE_sr.upf 

ATOMIC_POSITIONS crystal 
   Li    0.0    0.352722    0.352722    
   Li    0.0    0.647278    0.647278    
   N    0.0    0.072696    0.072696    
   N    0.0    0.927304    0.927304    
K_POINTS automatic 
10  10  3    0  0  0  
