&CONTROL 
   calculation = 'vc-relax'
   restart_mode = 'from_scratch' 
   prefix = 'Be6Al' 
   tstress = .true. 
   tprnfor = .true. 
   pseudo_dir = '../pseudo' 
   outdir = './output' 
   forc_conv_thr = 0.001
   etot_conv_thr = 0.0001
&end 
&SYSTEM 
   ibrav = 4 
   nat = 7 
   ntyp = 2 
   celldm(1) = 7.2598403854851865 
   celldm(3) = 1.0038563728980379 
   ecutwfc = 80 
   occupations = 'smearing' 
   smearing = 'marzari-vanderbilt' 
   degauss = 0.02 
&end 
&ELECTRONS 
   conv_thr =  1e-08 
   mixing_beta = 0.7 
   electron_maxstep =100
&end 
&IONS 
   ion_dynamics = 'bfgs' 
   upscale = 100.0
   trust_radius_max = 0.8
&end 
&CELL 
   cell_dynamics = 'bfgs' 
   cell_dofree = 'ibrav' 
   cell_factor = 4.0 
   press_conv_thr = 1.0 
   press = 500.0 
&end 

ATOMIC_SPECIES 
   Be   9.012182    Be_ONCV_PBE_sr.upf 
   Al   26.9815386    Al_ONCV_PBE_sr.upf 

ATOMIC_POSITIONS crystal 
   Be    0.003454670000000019    0.50172733    0.0    
   Be    0.4982726600000001    0.99654533    0.0    
   Be    0.49827267    0.50172734    0.0    
   Be    0.0    0.0    0.248999    
   Be    0.0    0.0    0.751001    
   Be    0.33333333    0.66666667    0.5    
   Al    0.66666667    0.33333333    0.5    
K_POINTS automatic 
7  7  7    0  0  0  
