&CONTROL 
   calculation = 'vc-relax'
   restart_mode = 'from_scratch' 
   prefix = 'Be6C' 
   tstress = .true. 
   tprnfor = .true. 
   pseudo_dir = '../pseudo' 
   outdir = './output' 
   forc_conv_thr = 0.001
   etot_conv_thr = 0.0001
&end 
&SYSTEM 
   ibrav = 6 
   nat = 14 
   ntyp = 2 
   celldm(1) = 5.429797170698289 
   celldm(3) = 3.511343818057805 
   ecutwfc = 80 
   occupations = 'smearing' 
   smearing = 'marzari-vanderbilt' 
   degauss = 0.02 
&end 
&ELECTRONS 
   conv_thr =  1e-08 
   mixing_beta = 0.7 
   electron_maxstep =100
&end 
&IONS 
   ion_dynamics = 'bfgs' 
   upscale = 100.0
   trust_radius_max = 0.8
&end 
&CELL 
   cell_dynamics = 'bfgs' 
   cell_dofree = 'ibrav' 
   cell_factor = 4.0 
   press_conv_thr = 1.0 
   press = 500.0 
&end 

ATOMIC_SPECIES 
   Be   9.012182    Be_ONCV_PBE_sr.upf 
   C   12.0107    C_ONCV_PBE_sr.upf 

ATOMIC_POSITIONS crystal 
   Be    0.0    0.0    0.202739    
   Be    0.5    0.5    0.202739    
   Be    0.5    0.5    0.797261    
   Be    0.0    0.0    0.797261    
   Be    0.0    0.0    0.0    
   Be    0.5    0.5    0.0    
   Be    0.0    0.0    0.5    
   Be    0.5    0.5    0.5    
   Be    0.0    0.5    0.350279    
   Be    0.5    0.0    0.649721    
   Be    0.0    0.5    0.640607    
   Be    0.5    0.0    0.35939299999999996    
   C    0.0    0.5    0.901221    
   C    0.5    0.0    0.09877899999999995    
K_POINTS automatic 
9  9  2    0  0  0  
