&CONTROL 
   calculation = 'vc-relax'
   restart_mode = 'from_scratch' 
   prefix = 'Cl6F' 
   tstress = .true. 
   tprnfor = .true. 
   pseudo_dir = '../pseudo' 
   outdir = './output' 
   forc_conv_thr = 0.001
   etot_conv_thr = 0.0001
&end 
&SYSTEM 
   ibrav = 3 
   nat = 7 
   ntyp = 2 
   celldm(1) = 11.08165505771712 
   ecutwfc = 80 
   occupations = 'smearing' 
   smearing = 'marzari-vanderbilt' 
   degauss = 0.02 
&end 
&ELECTRONS 
   conv_thr =  1e-08 
   mixing_beta = 0.7 
   electron_maxstep =100
&end 
&IONS 
   ion_dynamics = 'bfgs' 
   upscale = 100.0
   trust_radius_max = 0.8
&end 
&CELL 
   cell_dynamics = 'bfgs' 
   cell_dofree = 'ibrav' 
   cell_factor = 4.0 
   press_conv_thr = 1.0 
   press = 500.0 
&end 

ATOMIC_SPECIES 
   Cl   35.453    Cl_ONCV_PBE_sr.upf 
   F   18.9984032    F_ONCV_PBE_sr.upf 

ATOMIC_POSITIONS crystal 
   Cl    0.3414995    0.0    0.3414995    
   Cl    0.6585004999999999    0.0    0.6585004999999999    
   Cl    0.3414995    -0.3414995    0.0    
   Cl    0.6585004999999999    -0.6585004999999999    0.0    
   Cl    0.0    0.3414995    -0.3414995    
   Cl    0.0    0.6585004999999999    -0.6585004999999999    
   F    0.0    0.0    0.0    
K_POINTS automatic 
4  4  4    0  0  0  
