&CONTROL 
   calculation = 'vc-relax'
   restart_mode = 'from_scratch' 
   prefix = 'NaC6' 
   tstress = .true. 
   tprnfor = .true. 
   pseudo_dir = '../pseudo' 
   outdir = './output' 
   forc_conv_thr = 0.001
   etot_conv_thr = 0.0001
&end 
&SYSTEM 
   ibrav = 5 
   nat = 7 
   ntyp = 2 
   celldm(1) = 7.9196391729004025 
   celldm(4) = 0.5006809356852148 
   ecutwfc = 80 
   occupations = 'smearing' 
   smearing = 'marzari-vanderbilt' 
   degauss = 0.02 
&end 
&ELECTRONS 
   conv_thr =  1e-08 
   mixing_beta = 0.7 
   electron_maxstep =100
&end 
&IONS 
   ion_dynamics = 'bfgs' 
   upscale = 100.0
   trust_radius_max = 0.8
&end 
&CELL 
   cell_dynamics = 'bfgs' 
   cell_dofree = 'ibrav' 
   cell_factor = 4.0 
   press_conv_thr = 1.0 
   press = 500.0 
&end 

ATOMIC_SPECIES 
   Na   22.98976928    Na_ONCV_PBE_sr.upf 
   C   12.0107    C_ONCV_PBE_sr.upf 

ATOMIC_POSITIONS crystal 
   Na    0.4999999999999999    0.4999999999999999    0.4999999999999999    
   C    0.33291200000000004    -0.332912    -5.474650017940886e-17    
   C    0.6670880000000001    -0.667088    -1.0970086182439052e-16    
   C    1.1102230246251565e-16    -0.6670880000000002    0.6670879999999998    
   C    5.551115123125783e-17    -0.3329120000000001    0.3329119999999999    
   C    -0.332912    -1.146912750345764e-16    0.33291199999999993    
   C    -0.667088    -2.298180098051903e-16    0.6670879999999999    
K_POINTS automatic 
6  6  6    0  0  0  
