&CONTROL 
   calculation = 'vc-relax'
   restart_mode = 'from_scratch' 
   prefix = 'ClF6' 
   tstress = .true. 
   tprnfor = .true. 
   pseudo_dir = '../pseudo' 
   outdir = './output' 
   forc_conv_thr = 0.001
   etot_conv_thr = 0.0001
&end 
&SYSTEM 
   ibrav = 4 
   nat = 7 
   ntyp = 2 
   celldm(1) = 7.640661019346114 
   celldm(3) = 0.9444189574705625 
   ecutwfc = 80 
   occupations = 'smearing' 
   smearing = 'marzari-vanderbilt' 
   degauss = 0.02 
&end 
&ELECTRONS 
   conv_thr =  1e-08 
   mixing_beta = 0.7 
   electron_maxstep =100
&end 
&IONS 
   ion_dynamics = 'bfgs' 
   upscale = 100.0
   trust_radius_max = 0.8
&end 
&CELL 
   cell_dynamics = 'bfgs' 
   cell_dofree = 'ibrav' 
   cell_factor = 4.0 
   press_conv_thr = 1.0 
   press = 500.0 
&end 

ATOMIC_SPECIES 
   Cl   35.453    Cl_ONCV_PBE_sr.upf 
   F   18.9984032    F_ONCV_PBE_sr.upf 

ATOMIC_POSITIONS crystal 
   Cl    0.0    0.0    0.5    
   F    1.2699562390095608e-17    0.3323575    0.248308    
   F    2.551098616107477e-17    0.6676425    0.751692    
   F    0.6676425    0.6676425    0.248308    
   F    0.3323575    0.3323575    0.751692    
   F    0.3323575    0.0    0.248308    
   F    0.6676425    0.0    0.751692    
K_POINTS automatic 
6  6  7    0  0  0  
