&CONTROL 
   calculation = 'vc-relax'
   restart_mode = 'from_scratch' 
   prefix = 'SF6' 
   tstress = .true. 
   tprnfor = .true. 
   pseudo_dir = '../pseudo' 
   outdir = './output' 
   forc_conv_thr = 0.001
   etot_conv_thr = 0.0001
&end 
&SYSTEM 
   ibrav = 5 
   nat = 7 
   ntyp = 2 
   celldm(1) = 7.924383179371074 
   celldm(4) = -0.3615770283705291 
   ecutwfc = 80 
   occupations = 'smearing' 
   smearing = 'marzari-vanderbilt' 
   degauss = 0.02 
&end 
&ELECTRONS 
   conv_thr =  1e-08 
   mixing_beta = 0.7 
   electron_maxstep =100
&end 
&IONS 
   ion_dynamics = 'bfgs' 
   upscale = 100.0
   trust_radius_max = 0.8
&end 
&CELL 
   cell_dynamics = 'bfgs' 
   cell_dofree = 'ibrav' 
   cell_factor = 4.0 
   press_conv_thr = 1.0 
   press = 500.0 
&end 

ATOMIC_SPECIES 
   S   32.065    S_ONCV_PBE_sr.upf 
   F   18.9984032    F_ONCV_PBE_sr.upf 

ATOMIC_POSITIONS crystal 
   S    0.0    0.0    0.0    
   F    1.0545785    -0.5879999999999996    0.2437285    
   F    -0.05457849999999953    0.5880000000000002    1.7562715    
   F    0.2437285000000001    0.05457850000000006    0.41200000000000003    
   F    0.7562715000000004    -0.05457849999999953    1.5879999999999999    
   F    0.4120000000000003    -0.7562714999999998    1.0545784999999996    
   F    0.5880000000000002    0.7562715000000002    0.9454215000000002    
K_POINTS automatic 
6  6  6    0  0  0  
