&CONTROL 
   calculation = 'vc-relax'
   restart_mode = 'from_scratch' 
   prefix = 'SiH6' 
   tstress = .true. 
   tprnfor = .true. 
   pseudo_dir = '../pseudo' 
   outdir = './output' 
   forc_conv_thr = 0.001
   etot_conv_thr = 0.0001
&end 
&SYSTEM 
   ibrav = 7 
   nat = 7 
   ntyp = 2 
   celldm(1) = 8.618534483282328 
   celldm(3) = 0.636142252444817 
   ecutwfc = 80 
   occupations = 'smearing' 
   smearing = 'marzari-vanderbilt' 
   degauss = 0.02 
&end 
&ELECTRONS 
   conv_thr =  1e-08 
   mixing_beta = 0.7 
   electron_maxstep =100
&end 
&IONS 
   ion_dynamics = 'bfgs' 
   upscale = 100.0
   trust_radius_max = 0.8
&end 
&CELL 
   cell_dynamics = 'bfgs' 
   cell_dofree = 'ibrav' 
   cell_factor = 4.0 
   press_conv_thr = 1.0 
   press = 500.0 
&end 

ATOMIC_SPECIES 
   Si   28.0855    Si_ONCV_PBE_sr.upf 
   H   1.00794    H_ONCV_PBE_sr.upf 

ATOMIC_POSITIONS crystal 
   Si    0.0    0.0    0.0    
   H    -0.115175    0.944149    0.594954    
   H    -0.650805    1.171026    0.055850999999999956    
   H    0.11517499999999992    1.4797790000000002    -0.1710259999999999    
   H    0.6508050000000001    0.40504599999999996    -0.47977900000000007    
   H    -0.5    0.6249645    0.1249645    
   H    0.5    0.8750355    0.37503549999999997    
K_POINTS automatic 
6  6  9    0  0  0  
