&CONTROL 
   calculation = 'vc-relax'
   restart_mode = 'from_scratch' 
   prefix = 'Li6Be' 
   tstress = .true. 
   tprnfor = .true. 
   pseudo_dir = '../pseudo' 
   outdir = './output' 
   forc_conv_thr = 0.001
   etot_conv_thr = 0.0001
&end 
&SYSTEM 
   ibrav = 5 
   nat = 7 
   ntyp = 2 
   celldm(1) = 7.37410489183695 
   celldm(4) = -0.16502806296233818 
   ecutwfc = 80 
   occupations = 'smearing' 
   smearing = 'marzari-vanderbilt' 
   degauss = 0.02 
&end 
&ELECTRONS 
   conv_thr =  1e-08 
   mixing_beta = 0.7 
   electron_maxstep =100
&end 
&IONS 
   ion_dynamics = 'bfgs' 
   upscale = 100.0
   trust_radius_max = 0.8
&end 
&CELL 
   cell_dynamics = 'bfgs' 
   cell_dofree = 'ibrav' 
   cell_factor = 4.0 
   press_conv_thr = 1.0 
   press = 500.0 
&end 

ATOMIC_SPECIES 
   Li   6.941    Li_ONCV_PBE_sr.upf 
   Be   9.012182    Be_ONCV_PBE_sr.upf 

ATOMIC_POSITIONS crystal 
   Li    0.9337860100000002    -0.6343889999999999    0.2187829999999999    
   Li    0.06621399000000017    0.634389    1.7812170000000003    
   Li    0.218783    -0.06621399000000003    0.365611    
   Li    0.7812170000000003    0.06621399000000017    1.634389    
   Li    0.3656110000000001    -0.781217    0.9337860099999997    
   Li    0.6343890000000002    0.7812170000000002    1.0662139900000003    
   Be    0.5000000000000001    0.5000000000000001    0.5000000000000001    
K_POINTS automatic 
6  6  6    0  0  0  
