&CONTROL 
   calculation = 'vc-relax'
   restart_mode = 'from_scratch' 
   prefix = 'Li6Cl' 
   tstress = .true. 
   tprnfor = .true. 
   pseudo_dir = '../pseudo' 
   outdir = './output' 
   forc_conv_thr = 0.001
   etot_conv_thr = 0.0001
&end 
&SYSTEM 
   ibrav = 5 
   nat = 7 
   ntyp = 2 
   celldm(1) = 9.873682286778871 
   celldm(4) = -0.45657336559970224 
   ecutwfc = 80 
   occupations = 'smearing' 
   smearing = 'marzari-vanderbilt' 
   degauss = 0.02 
&end 
&ELECTRONS 
   conv_thr =  1e-08 
   mixing_beta = 0.7 
   electron_maxstep =100
&end 
&IONS 
   ion_dynamics = 'bfgs' 
   upscale = 100.0
   trust_radius_max = 0.8
&end 
&CELL 
   cell_dynamics = 'bfgs' 
   cell_dofree = 'ibrav' 
   cell_factor = 4.0 
   press_conv_thr = 1.0 
   press = 500.0 
&end 

ATOMIC_SPECIES 
   Li   6.941    Li_ONCV_PBE_sr.upf 
   Cl   35.453    Cl_ONCV_PBE_sr.upf 

ATOMIC_POSITIONS crystal 
   Li    0.7734630000000002    -0.783696    0.020951999999999835    
   Li    0.020952000000000026    -0.22653700000000013    0.21630399999999994    
   Li    0.216304    -0.9790480000000001    0.7734629999999998    
   Li    0.4925040099999998    -0.29286100000000037    0.3128459999999996    
   Li    0.31284599999999974    -0.5074959900000005    0.7071389999999995    
   Li    0.7071389999999999    -0.6871540000000004    0.4925040099999996    
   Cl    0.014347999999999975    0.014347999999999975    0.014347999999999975    
K_POINTS automatic 
5  5  5    0  0  0  
