&CONTROL 
   calculation = 'vc-relax'
   restart_mode = 'from_scratch' 
   prefix = 'Li6Mg' 
   tstress = .true. 
   tprnfor = .true. 
   pseudo_dir = '../pseudo' 
   outdir = './output' 
   forc_conv_thr = 0.001
   etot_conv_thr = 0.0001
&end 
&SYSTEM 
   ibrav = 5 
   nat = 7 
   ntyp = 2 
   celldm(1) = 7.703936122966277 
   celldm(4) = -0.16657702479866554 
   ecutwfc = 80 
   occupations = 'smearing' 
   smearing = 'marzari-vanderbilt' 
   degauss = 0.02 
&end 
&ELECTRONS 
   conv_thr =  1e-08 
   mixing_beta = 0.7 
   electron_maxstep =100
&end 
&IONS 
   ion_dynamics = 'bfgs' 
   upscale = 100.0
   trust_radius_max = 0.8
&end 
&CELL 
   cell_dynamics = 'bfgs' 
   cell_dofree = 'ibrav' 
   cell_factor = 4.0 
   press_conv_thr = 1.0 
   press = 500.0 
&end 

ATOMIC_SPECIES 
   Li   6.941    Li_ONCV_PBE_sr.upf 
   Mg   24.305    Mg_ONCV_PBE_sr.upf 

ATOMIC_POSITIONS crystal 
   Li    0.34975601    -0.08149400000000001    0.190293    
   Li    0.6502439900000003    0.08149399999999984    1.8097069999999997    
   Li    0.19029300000000016    -0.6502439900000001    0.9185059999999998    
   Li    0.8097070000000001    0.65024399    1.081494    
   Li    0.918506    -0.809707    0.3497560099999999    
   Li    0.08149400000000029    0.809707    1.6502439899999999    
   Mg    0.5    0.5    0.5    
K_POINTS automatic 
6  6  6    0  0  0  
