&CONTROL 
   calculation = 'vc-relax'
   restart_mode = 'from_scratch' 
   prefix = 'Mg6O' 
   tstress = .true. 
   tprnfor = .true. 
   pseudo_dir = '../pseudo' 
   outdir = './output' 
   forc_conv_thr = 0.001
   etot_conv_thr = 0.0001
&end 
&SYSTEM 
   ibrav = 4 
   nat = 14 
   ntyp = 2 
   celldm(1) = 8.874151368900701 
   celldm(3) = 1.8866921650414017 
   ecutwfc = 80 
   occupations = 'smearing' 
   smearing = 'marzari-vanderbilt' 
   degauss = 0.02 
&end 
&ELECTRONS 
   conv_thr =  1e-08 
   mixing_beta = 0.7 
   electron_maxstep =100
&end 
&IONS 
   ion_dynamics = 'bfgs' 
   upscale = 100.0
   trust_radius_max = 0.8
&end 
&CELL 
   cell_dynamics = 'bfgs' 
   cell_dofree = 'ibrav' 
   cell_factor = 4.0 
   press_conv_thr = 1.0 
   press = 500.0 
&end 

ATOMIC_SPECIES 
   Mg   24.305    Mg_ONCV_PBE_sr.upf 
   O   15.9994    O_ONCV_PBE_sr.upf 

ATOMIC_POSITIONS crystal 
   Mg    1.257461389633328e-17    0.3290875    0.621931    
   Mg    0.6709125    0.6709125    0.621931    
   Mg    0.3290875    0.0    0.621931    
   Mg    1.2591139958581662e-17    0.32952    0.134223    
   Mg    0.67048    0.67048    0.134223    
   Mg    0.32952    0.0    0.134223    
   Mg    2.5601774424432348e-17    0.6700185    0.866704    
   Mg    0.32998150000000004    0.32998150000000004    0.866704    
   Mg    0.6700185    0.0    0.866704    
   Mg    0.33333333    0.66666667    0.378465    
   Mg    0.66666667    0.33333333    0.378465    
   Mg    0.0    0.0    0.375333    
   O    0.33333333    0.66666667    0.001467    
   O    0.66666667    0.33333333    0.001467    
K_POINTS automatic 
5  5  3    0  0  0  
