&CONTROL 
   calculation = 'vc-relax'
   restart_mode = 'from_scratch' 
   prefix = 'Mg6S' 
   tstress = .true. 
   tprnfor = .true. 
   pseudo_dir = '../pseudo' 
   outdir = './output' 
   forc_conv_thr = 0.001
   etot_conv_thr = 0.0001
&end 
&SYSTEM 
   ibrav = 5 
   nat = 7 
   ntyp = 2 
   celldm(1) = 10.084045499270811 
   celldm(4) = 0.5705602566591207 
   ecutwfc = 80 
   occupations = 'smearing' 
   smearing = 'marzari-vanderbilt' 
   degauss = 0.02 
&end 
&ELECTRONS 
   conv_thr =  1e-08 
   mixing_beta = 0.7 
   electron_maxstep =100
&end 
&IONS 
   ion_dynamics = 'bfgs' 
   upscale = 100.0
   trust_radius_max = 0.8
&end 
&CELL 
   cell_dynamics = 'bfgs' 
   cell_dofree = 'ibrav' 
   cell_factor = 4.0 
   press_conv_thr = 1.0 
   press = 500.0 
&end 

ATOMIC_SPECIES 
   Mg   24.305    Mg_ONCV_PBE_sr.upf 
   S   32.065    S_ONCV_PBE_sr.upf 

ATOMIC_POSITIONS crystal 
   Mg    0.49999999999999994    -0.49999999999999994    -3.5764229437540545e-17    
   Mg    1.6653345369377348e-16    -0.4999999999999999    0.4999999999999998    
   Mg    -0.4999999999999998    4.978996250514797e-17    0.49999999999999983    
   Mg    0.16407133000000002    0.16407133000000002    0.16407133000000002    
   Mg    0.8359286700000003    0.8359286700000003    0.8359286700000003    
   Mg    0.5000000000000001    0.5000000000000001    0.5000000000000001    
   S    0.0    0.0    0.0    
K_POINTS automatic 
5  5  5    0  0  0  
