&CONTROL 
   calculation = 'vc-relax'
   restart_mode = 'from_scratch' 
   prefix = 'Na6Al' 
   tstress = .true. 
   tprnfor = .true. 
   pseudo_dir = '../pseudo' 
   outdir = './output' 
   forc_conv_thr = 0.001
   etot_conv_thr = 0.0001
&end 
&SYSTEM 
   ibrav = 4 
   nat = 14 
   ntyp = 2 
   celldm(1) = 12.829299258918034 
   celldm(3) = 0.6919366285807036 
   ecutwfc = 80 
   occupations = 'smearing' 
   smearing = 'marzari-vanderbilt' 
   degauss = 0.02 
&end 
&ELECTRONS 
   conv_thr =  1e-08 
   mixing_beta = 0.7 
   electron_maxstep =100
&end 
&IONS 
   ion_dynamics = 'bfgs' 
   upscale = 100.0
   trust_radius_max = 0.8
&end 
&CELL 
   cell_dynamics = 'bfgs' 
   cell_dofree = 'ibrav' 
   cell_factor = 4.0 
   press_conv_thr = 1.0 
   press = 500.0 
&end 

ATOMIC_SPECIES 
   Na   22.98976928    Na_ONCV_PBE_sr.upf 
   Al   26.9815386    Al_ONCV_PBE_sr.upf 

ATOMIC_POSITIONS crystal 
   Na    0.13983300000000004    0.422258    0.0    
   Na    0.860167    0.577742    0.0    
   Na    0.717575    0.139833    0.0    
   Na    0.2824250000000001    0.860167    0.0    
   Na    0.577742    0.717575    0.0    
   Na    0.422258    0.28242500000000004    0.0    
   Na    0.577742    0.860167    0.5    
   Na    0.422258    0.139833    0.5    
   Na    0.860167    0.28242500000000004    0.5    
   Na    0.13983300000000004    0.717575    0.5    
   Na    0.28242500000000004    0.422258    0.5    
   Na    0.717575    0.577742    0.5    
   Al    0.0    0.0    0.25    
   Al    0.0    0.0    0.75    
K_POINTS automatic 
4  4  5    0  0  0  
