&CONTROL 
   calculation = 'vc-relax'
   restart_mode = 'from_scratch' 
   prefix = 'O6F' 
   tstress = .true. 
   tprnfor = .true. 
   pseudo_dir = '../pseudo' 
   outdir = './output' 
   forc_conv_thr = 0.001
   etot_conv_thr = 0.0001
&end 
&SYSTEM 
   ibrav = 4 
   nat = 7 
   ntyp = 2 
   celldm(1) = 7.9958615021878305 
   celldm(3) = 0.791092326166415 
   ecutwfc = 80 
   occupations = 'smearing' 
   smearing = 'marzari-vanderbilt' 
   degauss = 0.02 
&end 
&ELECTRONS 
   conv_thr =  1e-08 
   mixing_beta = 0.7 
   electron_maxstep =100
&end 
&IONS 
   ion_dynamics = 'bfgs' 
   upscale = 100.0
   trust_radius_max = 0.8
&end 
&CELL 
   cell_dynamics = 'bfgs' 
   cell_dofree = 'ibrav' 
   cell_factor = 4.0 
   press_conv_thr = 1.0 
   press = 500.0 
&end 

ATOMIC_SPECIES 
   O   15.9994    O_ONCV_PBE_sr.upf 
   F   18.9984032    F_ONCV_PBE_sr.upf 

ATOMIC_POSITIONS crystal 
   O    2.13362544685681e-17    0.5583865    0.174961    
   O    0.5583865    0.0    0.825039    
   O    0.4416135    0.4416135    0.174961    
   O    2.13362544685681e-17    0.5583865    0.825039    
   O    0.5583865    0.0    0.174961    
   O    0.4416135    0.4416135    0.825039    
   F    0.0    0.0    0.5    
K_POINTS automatic 
6  6  8    0  0  0  
