&CONTROL 
   calculation = 'vc-relax'
   restart_mode = 'from_scratch' 
   prefix = 'BeP6' 
   tstress = .true. 
   tprnfor = .true. 
   pseudo_dir = '../pseudo' 
   outdir = './output' 
   forc_conv_thr = 0.001
   etot_conv_thr = 0.0001
&end 
&SYSTEM 
   ibrav = 5 
   nat = 7 
   ntyp = 2 
   celldm(1) = 9.37856575250893 
   celldm(4) = -0.40228757169825163 
   ecutwfc = 80 
   occupations = 'smearing' 
   smearing = 'marzari-vanderbilt' 
   degauss = 0.02 
&end 
&ELECTRONS 
   conv_thr =  1e-08 
   mixing_beta = 0.7 
   electron_maxstep =100
&end 
&IONS 
   ion_dynamics = 'bfgs' 
   upscale = 100.0
   trust_radius_max = 0.8
&end 
&CELL 
   cell_dynamics = 'bfgs' 
   cell_dofree = 'ibrav' 
   cell_factor = 4.0 
   press_conv_thr = 1.0 
   press = 500.0 
&end 

ATOMIC_SPECIES 
   Be   9.012182    Be_ONCV_PBE_sr.upf 
   P   30.973762    P_ONCV_PBE_sr.upf 

ATOMIC_POSITIONS crystal 
   Be    0.0    0.0    0.0    
   P    1.45451701    -0.1291319999999999    0.7246249999999997    
   P    -0.4545170099999997    0.12913200000000002    1.2753749999999997    
   P    0.7246249999999999    0.45451700999999994    0.8708679999999998    
   P    0.2753750000000002    -0.45451700999999983    1.1291319999999996    
   P    0.8708680000000001    -0.2753749999999999    1.4545170099999996    
   P    0.12913200000000008    0.275375    0.5454829899999999    
K_POINTS automatic 
5  5  5    0  0  0  
