&CONTROL 
   calculation = 'vc-relax'
   restart_mode = 'from_scratch' 
   prefix = 'P6Cl' 
   tstress = .true. 
   tprnfor = .true. 
   pseudo_dir = '../pseudo' 
   outdir = './output' 
   forc_conv_thr = 0.001
   etot_conv_thr = 0.0001
&end 
&SYSTEM 
   ibrav = 5 
   nat = 7 
   ntyp = 2 
   celldm(1) = 19.202165146250707 
   celldm(4) = 0.9529511484405132 
   ecutwfc = 80 
   occupations = 'smearing' 
   smearing = 'marzari-vanderbilt' 
   degauss = 0.02 
&end 
&ELECTRONS 
   conv_thr =  1e-08 
   mixing_beta = 0.7 
   electron_maxstep =100
&end 
&IONS 
   ion_dynamics = 'bfgs' 
   upscale = 100.0
   trust_radius_max = 0.8
&end 
&CELL 
   cell_dynamics = 'bfgs' 
   cell_dofree = 'ibrav' 
   cell_factor = 4.0 
   press_conv_thr = 1.0 
   press = 500.0 
&end 

ATOMIC_SPECIES 
   P   30.973762    P_ONCV_PBE_sr.upf 
   Cl   35.453    Cl_ONCV_PBE_sr.upf 

ATOMIC_POSITIONS crystal 
   P    0.06981599999999999    0.06981599999999999    0.06981599999999999    
   P    0.9301839999999998    0.9301839999999998    0.9301839999999998    
   P    0.22511232999999994    0.22511232999999994    0.22511232999999994    
   P    0.7748876699999998    0.7748876699999998    0.7748876699999998    
   P    0.35259532999999993    0.35259532999999993    0.35259532999999993    
   P    0.6474046699999999    0.6474046699999999    0.6474046699999999    
   Cl    0.4999999999999999    0.4999999999999999    0.4999999999999999    
K_POINTS automatic 
2  2  2    0  0  0  
