&CONTROL 
   calculation = 'vc-relax'
   restart_mode = 'from_scratch' 
   prefix = 'P6F' 
   tstress = .true. 
   tprnfor = .true. 
   pseudo_dir = '../pseudo' 
   outdir = './output' 
   forc_conv_thr = 0.001
   etot_conv_thr = 0.0001
&end 
&SYSTEM 
   ibrav = 6 
   nat = 14 
   ntyp = 2 
   celldm(1) = 5.943908881451852 
   celldm(3) = 4.822028831984687 
   ecutwfc = 80 
   occupations = 'smearing' 
   smearing = 'marzari-vanderbilt' 
   degauss = 0.02 
&end 
&ELECTRONS 
   conv_thr =  1e-08 
   mixing_beta = 0.7 
   electron_maxstep =100
&end 
&IONS 
   ion_dynamics = 'bfgs' 
   upscale = 100.0
   trust_radius_max = 0.8
&end 
&CELL 
   cell_dynamics = 'bfgs' 
   cell_dofree = 'ibrav' 
   cell_factor = 4.0 
   press_conv_thr = 1.0 
   press = 500.0 
&end 

ATOMIC_SPECIES 
   P   30.973762    P_ONCV_PBE_sr.upf 
   F   18.9984032    F_ONCV_PBE_sr.upf 

ATOMIC_POSITIONS crystal 
   P    0.0    0.5    0.1343835    
   P    0.5    0.0    0.8656165    
   P    0.0    0.5    0.2761825    
   P    0.5    0.0    0.7238175    
   P    0.0    0.5    0.4261585    
   P    0.5    0.0    0.5738415    
   P    0.0    0.5    0.5751385    
   P    0.5    0.0    0.4248615    
   P    0.0    0.5    0.7235615    
   P    0.5    0.0    0.27643850000000003    
   P    0.0    0.5    0.8752015    
   P    0.5    0.0    0.12479850000000003    
   F    0.0    0.5    0.9822775    
   F    0.5    0.0    0.017722499999999974    
K_POINTS automatic 
8  8  2    0  0  0  
