&CONTROL 
   calculation = 'vc-relax'
   restart_mode = 'from_scratch' 
   prefix = 'LiP6' 
   tstress = .true. 
   tprnfor = .true. 
   pseudo_dir = '../pseudo' 
   outdir = './output' 
   forc_conv_thr = 0.001
   etot_conv_thr = 0.0001
&end 
&SYSTEM 
   ibrav = 5 
   nat = 7 
   ntyp = 2 
   celldm(1) = 18.431606811555795 
   celldm(4) = 0.950168633166758 
   ecutwfc = 80 
   occupations = 'smearing' 
   smearing = 'marzari-vanderbilt' 
   degauss = 0.02 
&end 
&ELECTRONS 
   conv_thr =  1e-08 
   mixing_beta = 0.7 
   electron_maxstep =100
&end 
&IONS 
   ion_dynamics = 'bfgs' 
   upscale = 100.0
   trust_radius_max = 0.8
&end 
&CELL 
   cell_dynamics = 'bfgs' 
   cell_dofree = 'ibrav' 
   cell_factor = 4.0 
   press_conv_thr = 1.0 
   press = 500.0 
&end 

ATOMIC_SPECIES 
   Li   6.941    Li_ONCV_PBE_sr.upf 
   P   30.973762    P_ONCV_PBE_sr.upf 

ATOMIC_POSITIONS crystal 
   Li    0.7345570000000001    0.734557    0.7345570000000001    
   P    0.21247167000000006    0.21247167    0.21247167000000006    
   P    0.3491766700000001    0.34917667    0.3491766700000001    
   P    0.4511990000000001    0.451199    0.4511990000000001    
   P    0.5885410000000001    0.588541    0.5885410000000001    
   P    0.8279506700000002    0.82795067    0.8279506700000002    
   P    0.9721330000000002    0.972133    0.9721330000000002    
K_POINTS automatic 
3  3  3    0  0  0  
