&CONTROL 
   calculation = 'vc-relax'
   restart_mode = 'from_scratch' 
   prefix = 'P6O' 
   tstress = .true. 
   tprnfor = .true. 
   pseudo_dir = '../pseudo' 
   outdir = './output' 
   forc_conv_thr = 0.001
   etot_conv_thr = 0.0001
&end 
&SYSTEM 
   ibrav = 7 
   nat = 7 
   ntyp = 2 
   celldm(1) = 5.969088839665668 
   celldm(3) = 4.8355567349978275 
   ecutwfc = 80 
   occupations = 'smearing' 
   smearing = 'marzari-vanderbilt' 
   degauss = 0.02 
&end 
&ELECTRONS 
   conv_thr =  1e-08 
   mixing_beta = 0.7 
   electron_maxstep =100
&end 
&IONS 
   ion_dynamics = 'bfgs' 
   upscale = 100.0
   trust_radius_max = 0.8
&end 
&CELL 
   cell_dynamics = 'bfgs' 
   cell_dofree = 'ibrav' 
   cell_factor = 4.0 
   press_conv_thr = 1.0 
   press = 500.0 
&end 

ATOMIC_SPECIES 
   P   30.973762    P_ONCV_PBE_sr.upf 
   O   15.9994    O_ONCV_PBE_sr.upf 

ATOMIC_POSITIONS crystal 
   P    0.0    0.103579    0.103579    
   P    0.0    0.896421    0.896421    
   P    0.0    0.2542245    0.2542245    
   P    0.0    0.7457754999999999    0.7457754999999999    
   P    0.0    0.3956015    0.3956015    
   P    0.0    0.6043985000000001    0.6043985000000001    
   O    0.0    0.0    0.0    
K_POINTS automatic 
8  8  2    0  0  0  
