&CONTROL 
   calculation = 'vc-relax'
   restart_mode = 'from_scratch' 
   prefix = 'NaSi6' 
   tstress = .true. 
   tprnfor = .true. 
   pseudo_dir = '../pseudo' 
   outdir = './output' 
   forc_conv_thr = 0.001
   etot_conv_thr = 0.0001
&end 
&SYSTEM 
   ibrav = 4 
   nat = 7 
   ntyp = 2 
   celldm(1) = 12.15556379901422 
   celldm(3) = 0.3559563920377354 
   ecutwfc = 80 
   occupations = 'smearing' 
   smearing = 'marzari-vanderbilt' 
   degauss = 0.02 
&end 
&ELECTRONS 
   conv_thr =  1e-08 
   mixing_beta = 0.7 
   electron_maxstep =100
&end 
&IONS 
   ion_dynamics = 'bfgs' 
   upscale = 100.0
   trust_radius_max = 0.8
&end 
&CELL 
   cell_dynamics = 'bfgs' 
   cell_dofree = 'ibrav' 
   cell_factor = 4.0 
   press_conv_thr = 1.0 
   press = 500.0 
&end 

ATOMIC_SPECIES 
   Na   22.98976928    Na_ONCV_PBE_sr.upf 
   Si   28.0855    Si_ONCV_PBE_sr.upf 

ATOMIC_POSITIONS crystal 
   Na    0.0    0.0    0.0    
   Si    0.14241150000000002    0.709441    0.5    
   Si    0.8575885    0.290559    0.5    
   Si    0.43297050000000004    0.1424115    0.5    
   Si    0.5670295    0.8575885    0.5    
   Si    0.290559    0.43297050000000004    0.5    
   Si    0.709441    0.5670295    0.5    
K_POINTS automatic 
4  4  11    0  0  0  
