&CONTROL 
   calculation = 'vc-relax'
   restart_mode = 'from_scratch' 
   prefix = 'BeAl2' 
   tstress = .true. 
   tprnfor = .true. 
   pseudo_dir = '../pseudo' 
   outdir = './output' 
   forc_conv_thr = 0.001
   etot_conv_thr = 0.0001
&end 
&SYSTEM 
   ibrav = 7 
   nat = 6 
   ntyp = 2 
   celldm(1) = 10.12258098619334 
   celldm(3) = 0.7853869529367121 
   ecutwfc = 80 
   occupations = 'smearing' 
   smearing = 'marzari-vanderbilt' 
   degauss = 0.02 
&end 
&ELECTRONS 
   conv_thr =  1e-08 
   mixing_beta = 0.7 
   electron_maxstep =100
&end 
&IONS 
   ion_dynamics = 'bfgs' 
   upscale = 100.0
   trust_radius_max = 0.8
&end 
&CELL 
   cell_dynamics = 'bfgs' 
   cell_dofree = 'ibrav' 
   cell_factor = 4.0 
   press_conv_thr = 1.0 
   press = 500.0 
&end 

ATOMIC_SPECIES 
   Be   9.012182    Be_ONCV_PBE_sr.upf 
   Al   26.9815386    Al_ONCV_PBE_sr.upf 

ATOMIC_POSITIONS crystal 
   Be    0.0    0.25    0.25    
   Be    0.0    0.75    0.75    
   Al    -0.17695399999999997    0.338477    -0.161523    
   Al    0.17695399999999994    0.6615230000000001    -0.838477    
   Al    0.5000000000000001    0.161523    -0.6615230000000001    
   Al    -0.5    0.838477    -0.338477    
K_POINTS automatic 
5  5  6    0  0  0  
