&CONTROL 
   calculation = 'vc-relax'
   restart_mode = 'from_scratch' 
   prefix = 'Be2H' 
   tstress = .true. 
   tprnfor = .true. 
   pseudo_dir = '../pseudo' 
   outdir = './output' 
   forc_conv_thr = 0.001
   etot_conv_thr = 0.0001
&end 
&SYSTEM 
   ibrav = 5 
   nat = 6 
   ntyp = 2 
   celldm(1) = 15.27613810908523 
   celldm(4) = 0.9674263955854276 
   ecutwfc = 80 
   occupations = 'smearing' 
   smearing = 'marzari-vanderbilt' 
   degauss = 0.02 
&end 
&ELECTRONS 
   conv_thr =  1e-08 
   mixing_beta = 0.7 
   electron_maxstep =100
&end 
&IONS 
   ion_dynamics = 'bfgs' 
   upscale = 100.0
   trust_radius_max = 0.8
&end 
&CELL 
   cell_dynamics = 'bfgs' 
   cell_dofree = 'ibrav' 
   cell_factor = 4.0 
   press_conv_thr = 1.0 
   press = 500.0 
&end 

ATOMIC_SPECIES 
   Be   9.012182    Be_ONCV_PBE_sr.upf 
   H   1.00794    H_ONCV_PBE_sr.upf 

ATOMIC_POSITIONS crystal 
   Be    0.23288483000000004    0.23288483000000004    0.23288483000000004    
   Be    0.7671151700000003    0.7671151700000003    0.7671151700000003    
   Be    0.3714005000000001    0.3714005000000001    0.3714005000000001    
   Be    0.6285995000000001    0.6285995000000001    0.6285995000000001    
   H    0.13874050000000002    0.13874050000000002    0.13874050000000002    
   H    0.8612595000000003    0.8612595000000003    0.8612595000000003    
K_POINTS automatic 
3  3  3    0  0  0  
