&CONTROL 
   calculation = 'vc-relax'
   restart_mode = 'from_scratch' 
   prefix = 'LiBe2' 
   tstress = .true. 
   tprnfor = .true. 
   pseudo_dir = '../pseudo' 
   outdir = './output' 
   forc_conv_thr = 0.001
   etot_conv_thr = 0.0001
&end 
&SYSTEM 
   ibrav = 4 
   nat = 6 
   ntyp = 2 
   celldm(1) = 6.257434610275418 
   celldm(3) = 1.2541773108258072 
   ecutwfc = 80 
   occupations = 'smearing' 
   smearing = 'marzari-vanderbilt' 
   degauss = 0.02 
&end 
&ELECTRONS 
   conv_thr =  1e-08 
   mixing_beta = 0.7 
   electron_maxstep =100
&end 
&IONS 
   ion_dynamics = 'bfgs' 
   upscale = 100.0
   trust_radius_max = 0.8
&end 
&CELL 
   cell_dynamics = 'bfgs' 
   cell_dofree = 'ibrav' 
   cell_factor = 4.0 
   press_conv_thr = 1.0 
   press = 500.0 
&end 

ATOMIC_SPECIES 
   Li   6.941    Li_ONCV_PBE_sr.upf 
   Be   9.012182    Be_ONCV_PBE_sr.upf 

ATOMIC_POSITIONS crystal 
   Li    0.33333333    0.66666667    0.045066    
   Li    0.66666667    0.33333333    0.954934    
   Be    0.0    0.0    0.266875    
   Be    0.0    0.0    0.733125    
   Be    0.33333333    0.66666667    0.538248    
   Be    0.66666667    0.33333333    0.46175200000000005    
K_POINTS automatic 
8  8  6    0  0  0  
