&CONTROL 
   calculation = 'vc-relax'
   restart_mode = 'from_scratch' 
   prefix = 'B2S' 
   tstress = .true. 
   tprnfor = .true. 
   pseudo_dir = '../pseudo' 
   outdir = './output' 
   forc_conv_thr = 0.001
   etot_conv_thr = 0.0001
&end 
&SYSTEM 
   ibrav = 7 
   nat = 6 
   ntyp = 2 
   celldm(1) = 5.414395279105648 
   celldm(3) = 4.225904394977565 
   ecutwfc = 80 
   occupations = 'smearing' 
   smearing = 'marzari-vanderbilt' 
   degauss = 0.02 
&end 
&ELECTRONS 
   conv_thr =  1e-08 
   mixing_beta = 0.7 
   electron_maxstep =100
&end 
&IONS 
   ion_dynamics = 'bfgs' 
   upscale = 100.0
   trust_radius_max = 0.8
&end 
&CELL 
   cell_dynamics = 'bfgs' 
   cell_dofree = 'ibrav' 
   cell_factor = 4.0 
   press_conv_thr = 1.0 
   press = 500.0 
&end 

ATOMIC_SPECIES 
   B   10.811    B_ONCV_PBE_sr.upf 
   S   32.065    S_ONCV_PBE_sr.upf 

ATOMIC_POSITIONS crystal 
   B    0.0    0.3411195    0.3411195    
   B    -0.5    1.0911195    0.5911195    
   B    -0.5    1.4088805    0.9088805    
   B    0.0    0.6588805    0.6588805    
   S    0.0    0.0    0.0    
   S    -0.5    0.75    0.25    
K_POINTS automatic 
9  9  2    0  0  0  
