&CONTROL 
   calculation = 'vc-relax'
   restart_mode = 'from_scratch' 
   prefix = 'C2F' 
   tstress = .true. 
   tprnfor = .true. 
   pseudo_dir = '../pseudo' 
   outdir = './output' 
   forc_conv_thr = 0.001
   etot_conv_thr = 0.0001
&end 
&SYSTEM 
   ibrav = 4 
   nat = 6 
   ntyp = 2 
   celldm(1) = 4.610959259756203 
   celldm(3) = 2.844418083490527 
   ecutwfc = 80 
   occupations = 'smearing' 
   smearing = 'marzari-vanderbilt' 
   degauss = 0.02 
&end 
&ELECTRONS 
   conv_thr =  1e-08 
   mixing_beta = 0.7 
   electron_maxstep =100
&end 
&IONS 
   ion_dynamics = 'bfgs' 
   upscale = 100.0
   trust_radius_max = 0.8
&end 
&CELL 
   cell_dynamics = 'bfgs' 
   cell_dofree = 'ibrav' 
   cell_factor = 4.0 
   press_conv_thr = 1.0 
   press = 500.0 
&end 

ATOMIC_SPECIES 
   C   12.0107    C_ONCV_PBE_sr.upf 
   F   18.9984032    F_ONCV_PBE_sr.upf 

ATOMIC_POSITIONS crystal 
   C    0.0    0.0    0.3919355    
   C    0.0    0.0    0.6080645    
   C    0.33333333    0.66666667    0.6788855    
   C    0.66666667    0.33333333    0.32111449999999997    
   F    0.33333333    0.66666667    0.8717265    
   F    0.66666667    0.33333333    0.12827350000000004    
K_POINTS automatic 
10  10  4    0  0  0  
