&CONTROL 
   calculation = 'vc-relax'
   restart_mode = 'from_scratch' 
   prefix = 'HC2' 
   tstress = .true. 
   tprnfor = .true. 
   pseudo_dir = '../pseudo' 
   outdir = './output' 
   forc_conv_thr = 0.001
   etot_conv_thr = 0.0001
&end 
&SYSTEM 
   ibrav = 5 
   nat = 6 
   ntyp = 2 
   celldm(1) = 10.528037007438865 
   celldm(4) = 0.9041219718073209 
   ecutwfc = 80 
   occupations = 'smearing' 
   smearing = 'marzari-vanderbilt' 
   degauss = 0.02 
&end 
&ELECTRONS 
   conv_thr =  1e-08 
   mixing_beta = 0.7 
   electron_maxstep =100
&end 
&IONS 
   ion_dynamics = 'bfgs' 
   upscale = 100.0
   trust_radius_max = 0.8
&end 
&CELL 
   cell_dynamics = 'bfgs' 
   cell_dofree = 'ibrav' 
   cell_factor = 4.0 
   press_conv_thr = 1.0 
   press = 500.0 
&end 

ATOMIC_SPECIES 
   H   1.00794    H_ONCV_PBE_sr.upf 
   C   12.0107    C_ONCV_PBE_sr.upf 

ATOMIC_POSITIONS crystal 
   H    0.30930599999999997    0.30930599999999997    0.30930599999999997    
   H    0.6906939999999998    0.6906939999999998    0.6906939999999998    
   C    0.24282132999999997    0.24282132999999997    0.24282132999999997    
   C    0.7571786699999999    0.7571786699999999    0.7571786699999999    
   C    0.45323432999999996    0.45323432999999996    0.45323432999999996    
   C    0.5467656699999999    0.5467656699999999    0.5467656699999999    
K_POINTS automatic 
5  5  5    0  0  0  
