&CONTROL 
   calculation = 'vc-relax'
   restart_mode = 'from_scratch' 
   prefix = 'LiC2' 
   tstress = .true. 
   tprnfor = .true. 
   pseudo_dir = '../pseudo' 
   outdir = './output' 
   forc_conv_thr = 0.001
   etot_conv_thr = 0.0001
&end 
&SYSTEM 
   ibrav = 5 
   nat = 6 
   ntyp = 2 
   celldm(1) = 12.72223424468794 
   celldm(4) = 0.9330752550256355 
   ecutwfc = 80 
   occupations = 'smearing' 
   smearing = 'marzari-vanderbilt' 
   degauss = 0.02 
&end 
&ELECTRONS 
   conv_thr =  1e-08 
   mixing_beta = 0.7 
   electron_maxstep =100
&end 
&IONS 
   ion_dynamics = 'bfgs' 
   upscale = 100.0
   trust_radius_max = 0.8
&end 
&CELL 
   cell_dynamics = 'bfgs' 
   cell_dofree = 'ibrav' 
   cell_factor = 4.0 
   press_conv_thr = 1.0 
   press = 500.0 
&end 

ATOMIC_SPECIES 
   Li   6.941    Li_ONCV_PBE_sr.upf 
   C   12.0107    C_ONCV_PBE_sr.upf 

ATOMIC_POSITIONS crystal 
   Li    0.4184310000000001    0.418431    0.4184310000000001    
   Li    0.5815690000000001    0.581569    0.5815690000000001    
   C    0.16252100000000003    0.162521    0.16252100000000003    
   C    0.8374790000000002    0.837479    0.8374790000000002    
   C    0.32471400000000006    0.324714    0.32471400000000006    
   C    0.6752860000000002    0.675286    0.6752860000000002    
K_POINTS automatic 
4  4  4    0  0  0  
