&CONTROL 
   calculation = 'vc-relax'
   restart_mode = 'from_scratch' 
   prefix = 'Li2C' 
   tstress = .true. 
   tprnfor = .true. 
   pseudo_dir = '../pseudo' 
   outdir = './output' 
   forc_conv_thr = 0.001
   etot_conv_thr = 0.0001
&end 
&SYSTEM 
   ibrav = 5 
   nat = 6 
   ntyp = 2 
   celldm(1) = 8.731314413591862 
   celldm(4) = 0.7554873550779725 
   ecutwfc = 80 
   occupations = 'smearing' 
   smearing = 'marzari-vanderbilt' 
   degauss = 0.02 
&end 
&ELECTRONS 
   conv_thr =  1e-08 
   mixing_beta = 0.7 
   electron_maxstep =100
&end 
&IONS 
   ion_dynamics = 'bfgs' 
   upscale = 100.0
   trust_radius_max = 0.8
&end 
&CELL 
   cell_dynamics = 'bfgs' 
   cell_dofree = 'ibrav' 
   cell_factor = 4.0 
   press_conv_thr = 1.0 
   press = 500.0 
&end 

ATOMIC_SPECIES 
   Li   6.941    Li_ONCV_PBE_sr.upf 
   C   12.0107    C_ONCV_PBE_sr.upf 

ATOMIC_POSITIONS crystal 
   Li    0.13699517000000003    0.13699517000000003    0.13699517000000003    
   Li    0.8630048300000002    0.8630048300000002    0.8630048300000002    
   Li    0.30607983000000005    0.30607983000000005    0.30607983000000005    
   Li    0.6939201700000001    0.6939201700000001    0.6939201700000001    
   C    0.4521055000000001    0.4521055000000001    0.4521055000000001    
   C    0.5478945000000001    0.5478945000000001    0.5478945000000001    
K_POINTS automatic 
5  5  5    0  0  0  
