&CONTROL 
   calculation = 'vc-relax'
   restart_mode = 'from_scratch' 
   prefix = 'Li2F' 
   tstress = .true. 
   tprnfor = .true. 
   pseudo_dir = '../pseudo' 
   outdir = './output' 
   forc_conv_thr = 0.001
   etot_conv_thr = 0.0001
&end 
&SYSTEM 
   ibrav = 4 
   nat = 6 
   ntyp = 2 
   celldm(1) = 4.590048703102632 
   celldm(3) = 3.3874698637167024 
   ecutwfc = 80 
   occupations = 'smearing' 
   smearing = 'marzari-vanderbilt' 
   degauss = 0.02 
&end 
&ELECTRONS 
   conv_thr =  1e-08 
   mixing_beta = 0.7 
   electron_maxstep =100
&end 
&IONS 
   ion_dynamics = 'bfgs' 
   upscale = 100.0
   trust_radius_max = 0.8
&end 
&CELL 
   cell_dynamics = 'bfgs' 
   cell_dofree = 'ibrav' 
   cell_factor = 4.0 
   press_conv_thr = 1.0 
   press = 500.0 
&end 

ATOMIC_SPECIES 
   Li   6.941    Li_ONCV_PBE_sr.upf 
   F   18.9984032    F_ONCV_PBE_sr.upf 

ATOMIC_POSITIONS crystal 
   Li    0.33333333    0.66666667    0.7364805    
   Li    0.66666667    0.33333333    0.2635195    
   Li    0.0    0.0    0.0    
   Li    0.0    0.0    0.5    
   F    0.33333333    0.66666667    0.1325285    
   F    0.66666667    0.33333333    0.8674715    
K_POINTS automatic 
10  10  3    0  0  0  
