&CONTROL 
   calculation = 'vc-relax'
   restart_mode = 'from_scratch' 
   prefix = 'P2F' 
   tstress = .true. 
   tprnfor = .true. 
   pseudo_dir = '../pseudo' 
   outdir = './output' 
   forc_conv_thr = 0.001
   etot_conv_thr = 0.0001
&end 
&SYSTEM 
   ibrav = 7 
   nat = 6 
   ntyp = 2 
   celldm(1) = 4.284382647621918 
   celldm(3) = 10.122897216305777 
   ecutwfc = 80 
   occupations = 'smearing' 
   smearing = 'marzari-vanderbilt' 
   degauss = 0.02 
&end 
&ELECTRONS 
   conv_thr =  1e-08 
   mixing_beta = 0.7 
   electron_maxstep =100
&end 
&IONS 
   ion_dynamics = 'bfgs' 
   upscale = 100.0
   trust_radius_max = 0.8
&end 
&CELL 
   cell_dynamics = 'bfgs' 
   cell_dofree = 'ibrav' 
   cell_factor = 4.0 
   press_conv_thr = 1.0 
   press = 500.0 
&end 

ATOMIC_SPECIES 
   P   30.973762    P_ONCV_PBE_sr.upf 
   F   18.9984032    F_ONCV_PBE_sr.upf 

ATOMIC_POSITIONS crystal 
   P    0.0    0.0469415    0.0469415    
   P    0.0    0.9530585    0.9530585    
   P    0.0    0.145692    0.145692    
   P    0.0    0.8543080000000001    0.8543080000000001    
   F    0.0    0.214086    0.214086    
   F    0.0    0.785914    0.785914    
K_POINTS automatic 
11  11  1    0  0  0  
