&CONTROL 
   calculation = 'vc-relax'
   restart_mode = 'from_scratch' 
   prefix = 'SiS2' 
   tstress = .true. 
   tprnfor = .true. 
   pseudo_dir = '../pseudo' 
   outdir = './output' 
   forc_conv_thr = 0.001
   etot_conv_thr = 0.0001
&end 
&SYSTEM 
   ibrav = 5 
   nat = 3 
   ntyp = 2 
   celldm(1) = 9.362124346623574 
   celldm(4) = 0.8102160426353713 
   ecutwfc = 80 
   occupations = 'smearing' 
   smearing = 'marzari-vanderbilt' 
   degauss = 0.02 
&end 
&ELECTRONS 
   conv_thr =  1e-08 
   mixing_beta = 0.7 
   electron_maxstep =100
&end 
&IONS 
   ion_dynamics = 'bfgs' 
   upscale = 100.0
   trust_radius_max = 0.8
&end 
&CELL 
   cell_dynamics = 'bfgs' 
   cell_dofree = 'ibrav' 
   cell_factor = 4.0 
   press_conv_thr = 1.0 
   press = 500.0 
&end 

ATOMIC_SPECIES 
   Si   28.0855    Si_ONCV_PBE_sr.upf 
   S   32.065    S_ONCV_PBE_sr.upf 

ATOMIC_POSITIONS crystal 
   Si    0.0    0.0    0.0    
   S    0.7575613300000003    0.7575613300000003    0.7575613300000003    
   S    0.24243867000000002    0.24243867000000002    0.24243867000000002    
K_POINTS automatic 
5  5  5    0  0  0  
